%%MatrixMarket matrix coordinate integer general
% ReplicateGuard deterministic QC demonstration matrix
120 500 22683
1 1 2
2 1 5
3 1 3
4 1 2
5 1 4
6 1 2
7 1 1
8 1 4
9 1 2
10 1 5
11 1 5
12 1 3
13 1 3
14 1 5
15 1 2
16 1 1
18 1 1
25 1 1
27 1 1
30 1 1
33 1 1
38 1 1
44 1 1
53 1 1
61 1 1
62 1 1
64 1 1
68 1 1
82 1 1
83 1 1
97 1 1
102 1 1
106 1 1
114 1 1
2 2 1
3 2 1
4 2 1
5 2 1
6 2 1
7 2 1
8 2 1
10 2 1
11 2 1
12 2 3
14 2 1
58 2 1
68 2 1
88 2 1
1 3 1
2 3 5
3 3 6
4 3 2
5 3 5
6 3 2
7 3 1
8 3 2
9 3 1
11 3 3
12 3 2
13 3 5
14 3 3
15 3 4
19 3 1
36 3 1
42 3 1
51 3 1
55 3 1
58 3 1
61 3 1
67 3 1
81 3 1
91 3 1
105 3 1
111 3 1
112 3 1
117 3 1
119 3 1
120 3 1
1 4 2
2 4 6
3 4 3
4 4 1
5 4 3
6 4 2
7 4 2
8 4 1
9 4 4
10 4 1
11 4 3
12 4 2
13 4 3
14 4 4
15 4 5
51 4 1
54 4 1
66 4 1
81 4 1
89 4 1
98 4 1
104 4 1
107 4 1
111 4 2
112 4 1
116 4 1
118 4 1
3 5 1
4 5 1
5 5 1
8 5 1
10 5 2
13 5 1
14 5 2
15 5 1
24 5 1
32 5 1
1 6 4
2 6 2
3 6 1
4 6 1
5 6 2
6 6 1
7 6 2
8 6 1
9 6 4
10 6 5
11 6 2
12 6 1
14 6 4
15 6 1
19 6 1
23 6 1
25 6 1
32 6 1
34 6 1
56 6 1
80 6 1
89 6 1
91 6 1
95 6 1
107 6 1
120 6 1
1 7 3
2 7 4
3 7 1
4 7 2
5 7 4
6 7 1
7 7 3
8 7 4
9 7 3
10 7 1
11 7 1
12 7 3
13 7 5
14 7 7
46 7 1
49 7 1
55 7 1
60 7 1
65 7 1
68 7 1
69 7 1
70 7 1
90 7 1
91 7 1
111 7 1
115 7 1
120 7 1
1 8 1
2 8 4
3 8 2
4 8 2
5 8 5
6 8 1
7 8 1
8 8 1
9 8 1
10 8 1
11 8 2
12 8 3
13 8 6
15 8 4
16 8 1
24 8 1
27 8 1
28 8 1
29 8 1
36 8 1
37 8 1
45 8 1
46 8 1
58 8 1
65 8 2
72 8 1
75 8 1
78 8 2
85 8 1
87 8 1
114 8 1
1 9 3
2 9 2
3 9 2
4 9 3
5 9 6
6 9 9
7 9 4
8 9 6
9 9 4
10 9 2
11 9 5
12 9 1
13 9 4
14 9 5
15 9 5
16 9 1
22 9 1
26 9 2
38 9 1
88 9 1
103 9 1
110 9 2
118 9 1
1 10 3
2 10 5
3 10 2
4 10 2
5 10 1
6 10 3
7 10 7
8 10 3
9 10 1
10 10 2
11 10 4
12 10 1
13 10 3
14 10 2
15 10 3
16 10 1
57 10 1
58 10 1
62 10 1
66 10 1
69 10 1
82 10 1
88 10 2
93 10 1
95 10 2
105 10 1
109 10 1
116 10 2
1 11 2
2 11 4
3 11 4
4 11 1
5 11 1
6 11 6
7 11 3
8 11 1
9 11 5
10 11 6
11 11 4
12 11 3
13 11 2
14 11 6
15 11 5
17 11 1
23 11 1
25 11 1
26 11 1
48 11 1
54 11 1
55 11 1
75 11 1
88 11 1
91 11 1
95 11 2
105 11 1
116 11 1
120 11 1
1 12 4
2 12 1
3 12 6
4 12 1
6 12 2
7 12 4
8 12 1
10 12 2
11 12 3
12 12 3
13 12 3
14 12 4
15 12 5
28 12 1
51 12 1
65 12 1
66 12 1
75 12 1
87 12 1
93 12 1
100 12 1
103 12 1
118 12 2
120 12 1
1 13 2
3 13 1
5 13 3
6 13 1
8 13 3
9 13 3
10 13 1
11 13 3
12 13 1
13 13 1
14 13 1
15 13 1
35 13 1
44 13 1
46 13 1
55 13 1
79 13 1
95 13 1
99 13 1
101 13 1
1 14 3
2 14 2
3 14 4
4 14 4
5 14 2
6 14 2
7 14 2
8 14 1
9 14 3
10 14 4
12 14 1
13 14 2
14 14 3
15 14 1
23 14 1
49 14 1
62 14 1
81 14 1
84 14 1
100 14 1
113 14 1
117 14 1
1 15 1
3 15 1
4 15 3
5 15 2
6 15 4
7 15 3
8 15 1
9 15 3
10 15 2
11 15 3
12 15 4
13 15 1
14 15 1
15 15 1
21 15 1
37 15 1
39 15 1
40 15 1
42 15 1
43 15 1
60 15 1
68 15 1
1 16 3
2 16 3
3 16 1
5 16 2
6 16 1
8 16 4
9 16 2
12 16 3
14 16 1
16 16 1
28 16 1
33 16 1
37 16 1
55 16 1
64 16 1
67 16 1
70 16 2
73 16 1
79 16 1
4 17 1
5 17 3
7 17 1
10 17 2
11 17 2
13 17 1
14 17 2
15 17 3
19 17 1
29 17 2
40 17 1
45 17 1
49 17 1
56 17 1
59 17 1
65 17 1
111 17 1
1 18 1
2 18 3
3 18 1
4 18 9
5 18 1
6 18 4
7 18 1
8 18 5
9 18 4
10 18 3
11 18 4
12 18 4
13 18 5
14 18 2
15 18 5
20 18 1
27 18 1
32 18 1
53 18 1
65 18 1
75 18 1
77 18 1
79 18 1
83 18 1
87 18 1
95 18 1
96 18 1
98 18 1
109 18 1
114 18 1
120 18 2
1 19 9
2 19 1
3 19 1
4 19 1
5 19 2
6 19 4
7 19 3
8 19 4
9 19 6
10 19 1
11 19 4
12 19 3
13 19 6
14 19 3
15 19 4
20 19 1
21 19 1
22 19 1
37 19 1
38 19 1
43 19 1
51 19 1
55 19 1
68 19 1
75 19 1
83 19 1
92 19 1
93 19 1
98 19 1
100 19 1
110 19 1
2 20 1
3 20 2
7 20 1
11 20 3
12 20 1
13 20 2
15 20 3
35 20 1
76 20 1
79 20 1
92 20 1
99 20 1
110 20 1
112 20 1
117 20 1
1 21 2
2 21 2
3 21 1
4 21 1
5 21 2
6 21 2
7 21 2
8 21 2
10 21 2
12 21 1
13 21 2
15 21 2
78 21 1
80 21 1
116 21 1
1 22 3
2 22 3
3 22 3
4 22 5
5 22 3
6 22 4
7 22 7
8 22 3
9 22 2
10 22 4
11 22 2
12 22 3
13 22 5
14 22 4
15 22 4
16 22 1
20 22 1
33 22 1
47 22 1
58 22 1
60 22 1
66 22 1
84 22 2
86 22 2
90 22 1
99 22 1
110 22 1
111 22 1
1 23 4
3 23 2
4 23 5
6 23 1
7 23 2
8 23 2
10 23 1
11 23 1
12 23 3
13 23 2
14 23 2
25 23 1
27 23 1
47 23 1
51 23 1
63 23 1
78 23 1
86 23 1
1 24 2
2 24 7
3 24 1
4 24 3
5 24 2
6 24 4
7 24 4
8 24 5
9 24 4
10 24 5
11 24 2
12 24 2
13 24 6
14 24 2
15 24 2
22 24 1
23 24 1
24 24 1
28 24 1
39 24 1
47 24 1
53 24 1
55 24 1
63 24 1
65 24 1
77 24 1
83 24 2
84 24 1
86 24 1
95 24 1
103 24 1
119 24 2
1 25 2
2 25 3
3 25 6
4 25 6
5 25 4
6 25 7
7 25 3
8 25 3
9 25 3
10 25 2
11 25 3
12 25 6
13 25 2
14 25 5
15 25 2
28 25 1
33 25 1
35 25 1
46 25 1
47 25 1
50 25 1
72 25 1
78 25 1
81 25 1
82 25 1
88 25 1
90 25 1
1 26 2
2 26 1
3 26 3
4 26 5
5 26 1
6 26 5
7 26 2
8 26 2
11 26 1
12 26 4
13 26 2
14 26 3
15 26 1
24 26 1
36 26 1
41 26 1
45 26 1
49 26 1
51 26 2
64 26 2
78 26 1
81 26 1
95 26 1
115 26 1
1 27 1
2 27 1
6 27 1
7 27 1
10 27 1
13 27 2
15 27 1
24 27 1
77 27 1
98 27 1
108 27 1
4 28 3
6 28 2
7 28 2
8 28 2
10 28 2
12 28 2
14 28 2
1 29 3
2 29 5
3 29 3
4 29 5
5 29 3
6 29 2
7 29 2
8 29 2
9 29 2
10 29 2
11 29 5
12 29 5
13 29 5
14 29 3
15 29 3
28 29 1
30 29 1
32 29 1
37 29 1
41 29 1
42 29 1
50 29 1
53 29 1
62 29 1
69 29 1
79 29 1
85 29 2
90 29 1
93 29 1
100 29 1
102 29 1
112 29 1
119 29 1
1 30 1
2 30 1
3 30 2
4 30 1
8 30 1
10 30 2
11 30 3
12 30 1
14 30 2
16 30 1
33 30 1
43 30 2
111 30 1
1 31 7
2 31 2
3 31 3
4 31 2
5 31 3
6 31 1
7 31 6
8 31 3
9 31 3
10 31 3
11 31 4
12 31 1
13 31 2
14 31 3
15 31 3
17 31 1
19 31 1
34 31 1
42 31 1
51 31 1
53 31 1
57 31 1
80 31 1
84 31 1
97 31 1
104 31 1
115 31 1
1 32 5
3 32 2
4 32 1
5 32 4
6 32 3
7 32 3
9 32 6
10 32 4
11 32 2
12 32 3
13 32 2
14 32 1
15 32 4
27 32 1
30 32 1
43 32 1
46 32 1
47 32 2
48 32 1
50 32 2
59 32 1
72 32 1
73 32 1
75 32 1
82 32 1
93 32 1
99 32 1
1 33 3
3 33 1
4 33 1
5 33 4
6 33 1
7 33 1
8 33 2
9 33 1
10 33 1
11 33 2
12 33 1
13 33 1
14 33 2
15 33 2
16 33 1
42 33 1
51 33 1
53 33 1
64 33 1
71 33 1
84 33 1
112 33 1
116 33 1
1 34 4
2 34 5
3 34 3
4 34 3
5 34 3
6 34 1
7 34 1
8 34 3
9 34 4
10 34 4
11 34 5
12 34 4
13 34 2
14 34 4
15 34 2
27 34 1
32 34 1
36 34 1
39 34 1
54 34 1
57 34 1
63 34 1
65 34 1
70 34 1
79 34 1
90 34 1
94 34 1
96 34 1
103 34 1
110 34 2
112 34 1
113 34 1
119 34 1
1 35 3
2 35 5
3 35 2
4 35 1
5 35 1
6 35 3
7 35 2
8 35 3
9 35 2
10 35 2
11 35 2
12 35 3
13 35 2
14 35 5
20 35 1
62 35 1
75 35 1
76 35 1
79 35 1
3 36 3
4 36 2
6 36 2
8 36 3
9 36 3
11 36 2
13 36 1
14 36 5
15 36 2
26 36 1
27 36 1
31 36 1
32 36 1
35 36 1
90 36 1
1 37 5
2 37 1
3 37 1
4 37 3
5 37 6
6 37 4
7 37 1
8 37 2
9 37 3
10 37 5
11 37 2
12 37 2
13 37 1
14 37 2
15 37 3
34 37 1
44 37 1
48 37 1
58 37 1
63 37 1
68 37 1
75 37 1
79 37 1
82 37 1
93 37 1
101 37 1
110 37 1
111 37 1
119 37 1
2 38 1
5 38 1
6 38 2
8 38 1
9 38 2
10 38 2
11 38 3
13 38 1
37 38 1
2 39 4
3 39 2
4 39 1
6 39 1
7 39 2
9 39 1
10 39 3
11 39 2
13 39 1
14 39 2
15 39 3
18 39 2
33 39 1
54 39 1
66 39 1
67 39 1
69 39 1
80 39 1
86 39 1
107 39 1
2 40 1
3 40 3
4 40 3
5 40 6
6 40 3
7 40 5
8 40 2
9 40 3
10 40 2
11 40 4
12 40 7
13 40 2
14 40 2
22 40 1
26 40 1
27 40 1
28 40 1
33 40 1
48 40 1
49 40 1
61 40 1
66 40 1
68 40 1
70 40 1
78 40 1
93 40 1
118 40 1
1 41 2
2 41 1
3 41 1
6 41 3
7 41 1
8 41 2
13 41 1
14 41 1
57 41 1
101 41 1
109 41 1
1 42 1
2 42 2
5 42 2
8 42 1
9 42 1
10 42 2
11 42 1
12 42 2
13 42 3
14 42 2
15 42 2
29 42 1
31 42 1
56 42 1
63 42 1
81 42 1
93 42 1
95 42 1
119 42 1
1 43 1
3 43 2
5 43 1
6 43 1
7 43 1
8 43 2
10 43 2
11 43 1
13 43 2
38 43 1
1 44 2
2 44 4
3 44 1
4 44 1
5 44 2
6 44 2
9 44 3
10 44 3
12 44 2
13 44 2
14 44 2
15 44 1
20 44 1
25 44 1
32 44 2
51 44 1
55 44 1
71 44 1
76 44 1
83 44 1
115 44 1
118 44 1
1 45 1
2 45 1
4 45 1
5 45 2
6 45 2
7 45 3
8 45 1
9 45 1
10 45 2
11 45 2
12 45 4
13 45 5
14 45 2
15 45 2
18 45 1
33 45 1
45 45 1
65 45 1
96 45 1
105 45 1
119 45 1
1 46 1
2 46 5
3 46 1
4 46 1
5 46 4
7 46 3
8 46 3
9 46 4
10 46 4
11 46 3
12 46 9
13 46 3
14 46 4
15 46 4
19 46 1
41 46 1
47 46 1
48 46 1
50 46 1
59 46 1
61 46 2
64 46 1
68 46 1
70 46 1
72 46 1
74 46 1
82 46 1
90 46 1
93 46 1
95 46 1
102 46 1
113 46 1
1 47 5
2 47 1
3 47 1
4 47 4
6 47 4
7 47 2
8 47 4
9 47 2
10 47 1
11 47 6
12 47 3
13 47 3
14 47 1
15 47 1
18 47 1
22 47 2
28 47 2
34 47 1
38 47 1
53 47 1
61 47 2
67 47 1
71 47 1
74 47 1
82 47 1
83 47 2
93 47 1
94 47 1
114 47 1
1 48 2
3 48 2
4 48 3
5 48 1
6 48 3
7 48 5
8 48 6
9 48 1
10 48 5
11 48 2
12 48 8
13 48 3
14 48 2
15 48 1
21 48 1
22 48 1
26 48 1
30 48 1
53 48 1
61 48 1
62 48 1
67 48 1
70 48 1
76 48 1
80 48 1
84 48 1
98 48 1
99 48 1
118 48 1
1 49 1
3 49 2
4 49 1
5 49 3
6 49 5
7 49 3
8 49 2
9 49 1
10 49 1
12 49 2
13 49 2
14 49 2
15 49 2
16 49 1
52 49 1
69 49 1
83 49 1
89 49 1
120 49 1
1 50 2
2 50 3
3 50 1
4 50 3
5 50 5
6 50 2
7 50 2
8 50 2
9 50 3
10 50 2
11 50 3
12 50 2
13 50 2
14 50 4
15 50 3
18 50 1
20 50 1
29 50 1
35 50 1
40 50 1
43 50 1
47 50 1
48 50 1
51 50 1
59 50 2
65 50 1
80 50 1
90 50 2
95 50 1
99 50 1
103 50 1
105 50 1
111 50 1
115 50 1
119 50 1
120 50 1
1 51 5
2 51 8
3 51 4
4 51 4
5 51 5
6 51 3
7 51 5
8 51 1
9 51 1
10 51 4
11 51 4
12 51 5
13 51 2
14 51 3
15 51 3
26 51 1
34 51 1
41 51 1
43 51 1
54 51 1
64 51 1
67 51 1
69 51 1
76 51 1
78 51 1
84 51 1
86 51 1
95 51 1
109 51 1
112 51 1
1 52 2
2 52 2
3 52 3
4 52 4
5 52 1
6 52 2
7 52 4
8 52 3
9 52 1
10 52 2
11 52 1
12 52 5
13 52 5
14 52 4
15 52 1
17 52 1
23 52 2
27 52 1
32 52 1
35 52 1
40 52 2
48 52 1
54 52 1
56 52 1
60 52 1
62 52 1
66 52 1
68 52 1
72 52 1
79 52 1
99 52 1
104 52 1
113 52 1
1 53 1
2 53 2
3 53 1
4 53 1
5 53 1
6 53 2
7 53 1
8 53 1
9 53 1
10 53 4
11 53 3
15 53 2
24 53 1
43 53 1
46 53 1
69 53 1
89 53 1
107 53 1
115 53 1
1 54 3
2 54 1
3 54 2
4 54 2
5 54 4
6 54 2
7 54 2
8 54 3
9 54 3
10 54 4
11 54 1
12 54 2
13 54 2
14 54 2
15 54 3
18 54 1
23 54 1
41 54 1
48 54 1
49 54 1
67 54 1
71 54 1
77 54 1
93 54 1
2 55 3
3 55 2
4 55 1
5 55 1
6 55 4
9 55 1
10 55 1
11 55 4
12 55 1
13 55 2
14 55 3
15 55 5
45 55 1
57 55 1
71 55 1
72 55 1
75 55 1
77 55 1
89 55 1
94 55 1
99 55 2
110 55 1
111 55 1
1 56 2
2 56 1
3 56 5
4 56 7
5 56 3
6 56 2
7 56 4
8 56 3
9 56 4
10 56 1
11 56 2
12 56 2
13 56 2
14 56 8
15 56 4
18 56 1
24 56 1
34 56 1
36 56 1
53 56 1
64 56 1
69 56 1
73 56 1
78 56 1
88 56 1
110 56 1
112 56 1
116 56 1
120 56 1
1 57 2
2 57 2
3 57 1
4 57 2
5 57 4
6 57 1
7 57 4
8 57 3
9 57 1
10 57 3
11 57 2
12 57 3
21 57 1
26 57 1
68 57 1
80 57 1
84 57 1
3 58 2
4 58 1
6 58 1
7 58 1
8 58 1
10 58 1
11 58 4
12 58 2
13 58 2
25 58 1
60 58 1
80 58 2
119 58 1
1 59 2
2 59 1
3 59 2
4 59 3
5 59 4
6 59 4
7 59 2
8 59 2
9 59 1
10 59 4
11 59 2
12 59 2
13 59 4
14 59 2
15 59 4
17 59 2
33 59 2
36 59 1
39 59 1
44 59 1
50 59 1
57 59 1
67 59 1
71 59 1
73 59 1
76 59 1
86 59 1
92 59 1
111 59 1
1 60 3
2 60 4
3 60 6
4 60 6
5 60 5
6 60 3
7 60 4
8 60 5
9 60 1
10 60 4
11 60 4
12 60 3
13 60 3
14 60 1
15 60 1
20 60 1
27 60 1
42 60 1
47 60 1
49 60 1
61 60 1
71 60 1
72 60 1
90 60 1
92 60 1
95 60 1
98 60 1
103 60 1
112 60 1
1 61 4
2 61 1
3 61 2
4 61 2
5 61 2
6 61 1
7 61 2
8 61 1
9 61 3
10 61 3
11 61 2
12 61 1
13 61 3
14 61 4
26 61 1
32 61 1
40 61 1
51 61 1
76 61 1
78 61 1
80 61 1
100 61 1
102 61 1
117 61 1
1 62 1
5 62 2
6 62 2
7 62 1
9 62 1
11 62 1
12 62 3
13 62 1
41 62 1
90 62 1
1 63 2
3 63 2
5 63 1
9 63 2
10 63 1
12 63 1
13 63 1
42 63 2
45 63 1
66 63 1
69 63 1
78 63 1
95 63 1
97 63 1
109 63 1
118 63 1
1 64 3
2 64 4
3 64 4
5 64 1
6 64 4
7 64 5
8 64 3
9 64 3
10 64 3
11 64 2
12 64 2
13 64 4
14 64 4
15 64 5
35 64 1
50 64 2
57 64 1
60 64 1
61 64 1
62 64 1
66 64 1
72 64 1
77 64 1
79 64 1
80 64 1
88 64 2
95 64 1
103 64 1
105 64 1
106 64 1
116 64 1
117 64 1
120 64 1
1 65 2
2 65 4
3 65 1
4 65 4
5 65 1
6 65 3
7 65 1
8 65 2
9 65 2
10 65 1
11 65 3
12 65 6
13 65 2
14 65 2
18 65 1
36 65 1
42 65 1
50 65 1
56 65 1
63 65 1
65 65 2
69 65 1
88 65 1
92 65 1
95 65 1
112 65 1
116 65 1
1 66 2
2 66 1
3 66 2
6 66 3
7 66 1
8 66 8
9 66 5
10 66 1
11 66 4
12 66 1
13 66 2
14 66 5
15 66 2
16 66 1
21 66 1
22 66 1
36 66 1
43 66 1
54 66 2
59 66 1
66 66 1
69 66 1
71 66 1
72 66 1
73 66 1
77 66 1
85 66 1
87 66 1
104 66 1
105 66 1
119 66 1
1 67 1
2 67 3
3 67 1
4 67 1
5 67 3
6 67 2
7 67 1
10 67 2
11 67 1
12 67 2
14 67 4
23 67 1
42 67 1
67 67 1
106 67 1
111 67 1
2 68 4
3 68 1
4 68 3
5 68 4
6 68 1
7 68 1
8 68 3
9 68 3
10 68 3
11 68 4
12 68 1
13 68 4
15 68 4
18 68 1
20 68 1
26 68 1
40 68 1
45 68 1
83 68 2
84 68 1
91 68 1
104 68 1
117 68 1
2 69 2
3 69 2
6 69 2
7 69 2
8 69 2
9 69 1
10 69 3
11 69 1
12 69 2
14 69 1
15 69 3
29 69 1
74 69 1
75 69 1
89 69 1
109 69 1
113 69 1
120 69 1
1 70 1
2 70 2
3 70 3
4 70 1
5 70 2
6 70 4
7 70 3
8 70 1
9 70 5
10 70 2
12 70 3
13 70 2
14 70 3
15 70 4
18 70 1
19 70 1
28 70 1
30 70 1
39 70 1
47 70 1
56 70 1
57 70 1
58 70 1
64 70 1
76 70 1
85 70 1
87 70 1
89 70 1
91 70 1
92 70 1
104 70 1
111 70 1
1 71 2
2 71 2
3 71 3
5 71 2
6 71 1
7 71 1
8 71 2
9 71 2
10 71 2
11 71 1
12 71 4
13 71 1
14 71 2
15 71 4
44 71 1
81 71 1
82 71 1
113 71 1
1 72 6
2 72 7
3 72 2
4 72 1
5 72 2
6 72 6
8 72 2
9 72 5
10 72 2
11 72 6
12 72 4
13 72 2
14 72 2
15 72 6
24 72 1
30 72 1
41 72 1
44 72 1
52 72 1
53 72 1
59 72 1
66 72 1
79 72 1
80 72 1
87 72 1
108 72 1
112 72 2
120 72 1
1 73 4
2 73 1
4 73 2
5 73 2
6 73 5
7 73 1
8 73 1
9 73 3
10 73 4
12 73 2
13 73 2
14 73 1
15 73 6
33 73 1
36 73 1
57 73 1
74 73 1
85 73 1
93 73 1
101 73 1
103 73 1
104 73 1
117 73 1
118 73 1
1 74 1
2 74 2
3 74 1
5 74 1
6 74 3
7 74 5
8 74 1
9 74 4
10 74 2
11 74 1
12 74 2
13 74 3
14 74 2
15 74 2
24 74 1
25 74 1
42 74 1
48 74 1
50 74 1
73 74 1
104 74 1
1 75 1
2 75 8
3 75 3
4 75 3
6 75 1
7 75 1
8 75 1
9 75 2
10 75 2
11 75 1
12 75 1
13 75 2
14 75 2
15 75 2
19 75 1
30 75 1
35 75 1
51 75 1
77 75 1
81 75 1
117 75 1
1 76 5
2 76 3
3 76 2
4 76 1
5 76 1
6 76 1
7 76 1
8 76 4
9 76 3
10 76 2
11 76 1
13 76 1
14 76 4
15 76 1
26 76 1
27 76 1
34 76 1
42 76 1
45 76 1
52 76 1
73 76 1
75 76 1
103 76 1
113 76 1
1 77 1
2 77 2
3 77 2
5 77 2
7 77 3
8 77 2
9 77 1
10 77 2
11 77 2
12 77 1
14 77 2
15 77 2
23 77 1
34 77 1
41 77 1
42 77 1
50 77 1
1 78 3
3 78 1
4 78 4
5 78 1
6 78 2
9 78 1
10 78 1
11 78 3
12 78 2
13 78 3
14 78 2
29 78 1
41 78 1
46 78 1
62 78 1
72 78 1
73 78 1
83 78 1
86 78 1
88 78 2
97 78 1
102 78 1
111 78 1
113 78 1
1 79 3
2 79 3
4 79 5
5 79 3
6 79 3
7 79 3
8 79 3
9 79 2
11 79 2
12 79 6
13 79 1
14 79 1
15 79 2
17 79 1
19 79 1
27 79 1
35 79 1
37 79 1
63 79 1
70 79 1
74 79 1
89 79 1
91 79 1
92 79 1
93 79 1
98 79 1
100 79 1
103 79 1
112 79 1
114 79 1
116 79 1
1 80 2
3 80 2
4 80 3
5 80 4
7 80 1
8 80 1
10 80 1
11 80 3
12 80 4
14 80 1
15 80 2
16 80 1
28 80 2
30 80 1
57 80 1
94 80 1
109 80 1
114 80 1
117 80 1
1 81 1
2 81 1
3 81 1
4 81 3
5 81 4
6 81 1
7 81 4
9 81 2
10 81 2
12 81 1
13 81 2
15 81 4
16 81 1
25 81 1
29 81 1
32 81 1
54 81 1
57 81 1
88 81 1
93 81 1
102 81 1
113 81 1
115 81 1
1 82 4
2 82 2
3 82 5
4 82 3
5 82 4
6 82 3
7 82 4
8 82 1
9 82 3
10 82 2
11 82 3
12 82 5
13 82 4
14 82 3
15 82 1
24 82 1
32 82 1
40 82 1
47 82 1
48 82 1
53 82 1
57 82 1
64 82 1
65 82 1
67 82 1
71 82 1
73 82 2
84 82 1
86 82 1
90 82 1
92 82 1
96 82 1
100 82 1
114 82 1
117 82 1
118 82 1
1 83 2
3 83 2
4 83 1
5 83 3
6 83 4
8 83 2
9 83 1
10 83 3
11 83 4
12 83 3
13 83 2
14 83 1
15 83 2
25 83 1
27 83 1
38 83 1
39 83 1
56 83 1
67 83 1
71 83 1
74 83 1
95 83 1
110 83 1
1 84 3
2 84 3
3 84 1
4 84 3
5 84 5
6 84 1
7 84 4
8 84 2
9 84 1
10 84 3
11 84 5
12 84 1
14 84 4
15 84 2
30 84 1
34 84 1
36 84 1
53 84 1
65 84 1
66 84 1
67 84 1
73 84 1
83 84 1
84 84 1
85 84 1
93 84 1
101 84 1
106 84 1
119 84 1
1 85 1
2 85 1
6 85 2
7 85 2
8 85 1
9 85 5
10 85 2
11 85 2
12 85 2
13 85 1
14 85 1
43 85 1
52 85 1
58 85 1
1 86 2
2 86 2
3 86 4
4 86 6
5 86 2
6 86 4
7 86 4
8 86 2
9 86 1
11 86 2
12 86 4
13 86 3
14 86 4
15 86 3
40 86 1
61 86 1
63 86 1
66 86 1
71 86 1
83 86 1
86 86 1
96 86 1
3 87 3
5 87 2
6 87 2
9 87 2
10 87 2
11 87 3
12 87 2
13 87 3
42 87 1
47 87 1
64 87 1
102 87 1
104 87 1
107 87 1
120 87 1
1 88 3
2 88 2
3 88 1
4 88 3
6 88 5
7 88 2
8 88 2
9 88 2
11 88 2
12 88 3
13 88 1
14 88 3
15 88 1
30 88 1
34 88 1
36 88 1
40 88 1
41 88 1
63 88 1
75 88 2
88 88 1
94 88 1
98 88 1
104 88 1
1 89 1
2 89 3
3 89 2
4 89 2
5 89 2
6 89 1
7 89 5
8 89 2
9 89 7
10 89 7
11 89 3
12 89 1
13 89 3
14 89 2
15 89 3
16 89 1
32 89 1
33 89 1
35 89 1
41 89 1
48 89 1
49 89 1
50 89 1
51 89 2
61 89 1
65 89 1
74 89 1
81 89 1
83 89 1
96 89 1
115 89 1
119 89 1
120 89 1
1 90 6
2 90 2
3 90 4
4 90 8
5 90 2
6 90 3
7 90 1
8 90 5
9 90 4
10 90 4
11 90 3
12 90 2
13 90 4
14 90 2
15 90 6
25 90 1
36 90 1
38 90 1
58 90 1
59 90 1
61 90 1
65 90 1
88 90 1
96 90 1
108 90 1
114 90 1
1 91 1
2 91 1
3 91 9
4 91 2
5 91 4
6 91 1
8 91 2
9 91 4
10 91 5
11 91 2
12 91 2
13 91 2
14 91 1
15 91 4
17 91 1
20 91 1
25 91 1
33 91 1
46 91 1
53 91 1
54 91 1
71 91 1
72 91 1
93 91 1
96 91 1
108 91 1
1 92 2
3 92 6
4 92 3
5 92 1
6 92 4
7 92 3
8 92 4
9 92 4
10 92 3
11 92 3
12 92 1
13 92 1
14 92 2
15 92 3
19 92 1
27 92 1
33 92 1
34 92 1
39 92 1
48 92 1
52 92 1
59 92 1
60 92 1
64 92 1
71 92 1
74 92 1
95 92 1
104 92 1
107 92 1
118 92 2
3 93 1
4 93 2
5 93 1
6 93 1
8 93 1
10 93 2
12 93 2
13 93 2
14 93 1
15 93 3
17 93 1
38 93 1
46 93 1
52 93 1
59 93 1
61 93 1
71 93 1
74 93 1
95 93 1
3 94 1
4 94 2
5 94 2
7 94 1
8 94 1
9 94 1
12 94 1
13 94 1
14 94 2
15 94 1
44 94 1
55 94 1
71 94 1
108 94 1
1 95 2
3 95 1
4 95 1
5 95 3
6 95 4
7 95 1
9 95 2
11 95 1
13 95 1
81 95 1
95 95 1
1 96 4
2 96 6
3 96 4
4 96 1
5 96 4
6 96 6
7 96 4
8 96 5
9 96 3
10 96 3
11 96 3
12 96 6
13 96 2
14 96 2
15 96 5
18 96 1
19 96 1
20 96 1
48 96 1
56 96 1
81 96 1
102 96 1
104 96 1
1 97 2
2 97 4
4 97 2
5 97 2
6 97 2
7 97 1
9 97 1
10 97 2
11 97 3
13 97 2
27 97 1
37 97 1
43 97 1
45 97 1
50 97 1
52 97 1
58 97 1
70 97 1
1 98 2
2 98 2
3 98 1
4 98 1
7 98 1
8 98 1
10 98 3
12 98 2
14 98 2
15 98 1
25 98 1
57 98 1
87 98 1
110 98 1
112 98 1
1 99 2
2 99 1
4 99 1
5 99 2
7 99 2
10 99 3
12 99 1
15 99 1
40 99 1
59 99 1
68 99 1
107 99 1
2 100 3
4 100 2
5 100 2
6 100 4
7 100 2
9 100 2
10 100 1
11 100 4
12 100 1
13 100 1
14 100 2
15 100 1
33 100 2
35 100 1
47 100 1
49 100 1
50 100 1
59 100 1
73 100 1
83 100 1
94 100 1
105 100 1
2 101 1
3 101 4
5 101 7
7 101 3
8 101 4
9 101 2
10 101 6
11 101 3
12 101 2
13 101 2
14 101 2
15 101 6
20 101 1
39 101 1
43 101 1
61 101 1
65 101 1
81 101 1
87 101 1
96 101 1
100 101 1
107 101 1
113 101 1
114 101 1
120 101 1
1 102 4
2 102 3
3 102 5
4 102 5
5 102 1
6 102 7
7 102 5
8 102 4
10 102 1
11 102 6
12 102 1
13 102 4
14 102 1
15 102 1
16 102 1
31 102 1
36 102 1
52 102 1
54 102 1
57 102 1
61 102 1
67 102 1
69 102 1
80 102 1
84 102 1
88 102 1
93 102 1
105 102 1
106 102 1
107 102 1
110 102 1
111 102 1
115 102 1
119 102 1
1 103 2
2 103 4
3 103 2
4 103 1
5 103 4
6 103 1
7 103 3
8 103 2
9 103 7
10 103 3
11 103 3
12 103 2
13 103 1
15 103 2
24 103 1
26 103 1
30 103 1
45 103 1
46 103 1
56 103 1
71 103 2
74 103 1
77 103 1
88 103 1
101 103 2
105 103 1
117 103 1
120 103 1
1 104 1
2 104 2
3 104 2
4 104 2
5 104 3
6 104 1
7 104 1
8 104 5
9 104 2
10 104 2
12 104 1
13 104 2
14 104 2
15 104 1
31 104 3
38 104 1
50 104 1
52 104 1
54 104 1
71 104 1
73 104 1
91 104 1
112 104 1
1 105 5
3 105 2
4 105 2
5 105 2
6 105 3
7 105 8
8 105 2
9 105 3
10 105 3
11 105 7
12 105 4
13 105 3
14 105 3
15 105 2
21 105 1
27 105 1
67 105 1
69 105 1
72 105 1
74 105 1
86 105 1
93 105 1
105 105 1
106 105 1
109 105 1
1 106 1
2 106 2
3 106 1
4 106 2
6 106 3
8 106 1
9 106 2
10 106 1
12 106 4
13 106 1
14 106 1
15 106 2
27 106 1
28 106 1
52 106 1
84 106 1
98 106 1
103 106 1
110 106 1
113 106 1
119 106 1
1 107 5
2 107 4
3 107 4
4 107 5
5 107 3
6 107 4
7 107 1
8 107 3
9 107 2
11 107 4
12 107 2
13 107 4
14 107 4
15 107 7
16 107 1
30 107 1
31 107 1
32 107 1
33 107 1
34 107 1
41 107 1
46 107 1
60 107 1
61 107 1
65 107 1
67 107 1
89 107 1
91 107 1
96 107 1
111 107 1
113 107 1
119 107 1
1 108 4
2 108 1
3 108 1
4 108 1
5 108 3
6 108 2
7 108 4
8 108 1
9 108 1
10 108 1
11 108 1
13 108 2
14 108 2
15 108 2
20 108 1
46 108 1
47 108 1
49 108 1
56 108 1
74 108 1
76 108 1
79 108 2
120 108 1
2 109 1
3 109 1
4 109 1
7 109 1
8 109 1
9 109 1
11 109 3
12 109 1
15 109 2
26 109 1
50 109 1
52 109 1
73 109 1
101 109 1
114 109 1
1 110 5
2 110 1
3 110 3
4 110 3
5 110 5
6 110 2
7 110 2
8 110 2
9 110 3
10 110 2
11 110 2
12 110 5
13 110 2
14 110 5
15 110 5
19 110 1
21 110 1
24 110 1
40 110 1
57 110 2
71 110 1
72 110 1
81 110 1
82 110 1
84 110 1
1 111 3
2 111 1
3 111 2
4 111 2
5 111 2
6 111 2
7 111 1
8 111 4
9 111 4
11 111 1
12 111 1
13 111 4
14 111 2
15 111 3
31 111 1
43 111 1
61 111 1
75 111 1
97 111 1
98 111 1
101 111 2
103 111 1
1 112 5
2 112 2
3 112 5
4 112 2
5 112 1
6 112 2
7 112 1
8 112 2
9 112 1
10 112 4
12 112 2
13 112 4
14 112 1
15 112 5
25 112 1
60 112 1
62 112 1
66 112 1
84 112 1
97 112 1
113 112 1
118 112 1
1 113 3
3 113 2
5 113 1
6 113 1
7 113 2
8 113 2
9 113 1
11 113 1
13 113 4
14 113 1
15 113 1
44 113 1
56 113 1
88 113 1
111 113 3
1 114 5
2 114 2
3 114 2
4 114 3
5 114 5
6 114 2
7 114 6
8 114 4
9 114 4
10 114 1
11 114 4
12 114 3
13 114 3
14 114 2
15 114 2
16 114 2
54 114 1
58 114 1
60 114 1
70 114 2
71 114 1
88 114 1
90 114 1
91 114 1
94 114 1
95 114 1
96 114 1
101 114 1
106 114 1
111 114 1
112 114 1
1 115 2
2 115 1
3 115 2
4 115 1
5 115 1
6 115 1
7 115 1
8 115 4
9 115 2
10 115 1
11 115 2
12 115 6
13 115 1
14 115 1
15 115 1
42 115 1
44 115 1
73 115 1
84 115 1
87 115 1
89 115 1
91 115 1
118 115 1
1 116 2
3 116 2
4 116 6
5 116 1
6 116 3
7 116 2
8 116 5
9 116 2
10 116 7
11 116 2
12 116 4
13 116 4
14 116 1
15 116 5
17 116 1
19 116 1
30 116 1
42 116 1
46 116 1
50 116 1
53 116 1
64 116 1
70 116 1
73 116 1
91 116 1
95 116 1
110 116 1
111 116 1
2 117 2
3 117 8
4 117 1
5 117 1
6 117 5
7 117 4
8 117 1
9 117 1
10 117 2
11 117 2
12 117 4
13 117 3
14 117 8
15 117 1
18 117 1
61 117 1
65 117 1
67 117 1
70 117 1
78 117 1
85 117 2
88 117 1
97 117 1
102 117 1
1 118 4
2 118 2
3 118 2
5 118 3
6 118 1
7 118 2
8 118 6
9 118 3
10 118 4
11 118 4
12 118 3
13 118 2
14 118 2
15 118 1
23 118 1
24 118 1
29 118 1
31 118 1
35 118 1
39 118 1
49 118 1
54 118 1
61 118 1
63 118 1
67 118 1
77 118 1
86 118 1
92 118 1
101 118 1
103 118 1
110 118 1
1 119 6
2 119 5
3 119 1
4 119 3
5 119 2
6 119 3
7 119 6
8 119 3
9 119 3
10 119 5
11 119 2
12 119 6
13 119 4
14 119 2
15 119 3
34 119 1
38 119 1
39 119 2
42 119 1
43 119 1
44 119 1
48 119 1
52 119 1
68 119 1
89 119 1
93 119 1
96 119 1
97 119 1
111 119 1
117 119 1
119 119 2
4 120 1
6 120 1
9 120 2
10 120 3
11 120 2
12 120 2
13 120 1
14 120 2
71 120 1
73 120 1
84 120 1
104 120 1
108 120 1
1 121 3
2 121 1
3 121 2
4 121 4
5 121 3
7 121 2
8 121 3
9 121 2
10 121 4
11 121 1
13 121 4
15 121 2
22 121 1
47 121 1
53 121 1
57 121 1
73 121 1
88 121 1
93 121 1
98 121 1
99 121 1
106 121 1
110 121 1
116 121 1
1 122 5
2 122 3
3 122 2
5 122 2
6 122 1
7 122 2
8 122 2
9 122 1
10 122 4
11 122 2
12 122 2
13 122 2
14 122 3
15 122 3
25 122 1
51 122 2
68 122 1
78 122 1
82 122 1
88 122 1
106 122 1
1 123 3
2 123 3
4 123 2
5 123 2
6 123 3
7 123 1
8 123 2
9 123 2
10 123 3
11 123 2
12 123 1
13 123 4
15 123 3
27 123 1
56 123 1
67 123 1
74 123 1
93 123 1
105 123 1
1 124 8
2 124 3
3 124 3
4 124 1
5 124 4
6 124 6
7 124 3
8 124 2
9 124 2
10 124 4
11 124 3
12 124 2
13 124 1
14 124 3
15 124 2
17 124 1
21 124 1
26 124 1
33 124 1
34 124 1
43 124 1
44 124 1
51 124 1
77 124 1
81 124 1
87 124 1
93 124 1
96 124 1
110 124 1
112 124 1
114 124 1
119 124 1
1 125 1
2 125 2
3 125 1
4 125 5
6 125 3
7 125 5
8 125 6
9 125 5
10 125 2
11 125 1
12 125 1
13 125 3
14 125 1
15 125 1
17 125 1
77 125 1
90 125 1
107 125 1
1 126 2
2 126 3
3 126 3
4 126 3
5 126 1
6 126 3
7 126 5
8 126 2
10 126 4
12 126 7
13 126 7
14 126 3
15 126 6
16 126 1
17 126 1
21 126 1
24 126 1
45 126 1
48 126 1
57 126 1
58 126 1
61 126 1
68 126 1
81 126 1
90 126 1
96 126 1
102 126 3
106 126 1
114 126 1
1 127 1
3 127 1
4 127 1
5 127 1
6 127 2
7 127 2
8 127 3
10 127 3
12 127 3
13 127 2
14 127 2
18 127 1
19 127 1
50 127 1
62 127 1
63 127 1
68 127 2
102 127 1
104 127 1
112 127 1
114 127 1
1 128 1
2 128 1
5 128 3
6 128 2
7 128 2
8 128 2
9 128 1
10 128 3
11 128 3
13 128 2
25 128 1
32 128 1
37 128 1
48 128 1
57 128 1
65 128 1
86 128 1
90 128 1
91 128 1
97 128 1
108 128 1
110 128 1
117 128 2
2 129 1
3 129 1
4 129 5
5 129 2
6 129 2
8 129 2
10 129 2
11 129 1
12 129 3
13 129 1
15 129 1
30 129 1
32 129 1
83 129 1
96 129 1
113 129 1
118 129 1
120 129 1
1 130 5
2 130 2
3 130 2
4 130 2
5 130 5
6 130 2
7 130 2
8 130 4
9 130 3
10 130 4
11 130 3
12 130 1
13 130 4
14 130 2
15 130 6
28 130 1
31 130 1
32 130 1
33 130 1
34 130 1
52 130 1
53 130 1
54 130 1
57 130 3
58 130 1
64 130 1
73 130 2
78 130 1
81 130 1
83 130 1
87 130 1
93 130 2
115 130 1
1 131 3
2 131 1
3 131 5
4 131 3
5 131 6
6 131 5
7 131 3
8 131 2
9 131 2
10 131 8
11 131 4
13 131 3
14 131 2
15 131 7
17 131 2
45 131 1
47 131 1
67 131 2
69 131 1
77 131 1
85 131 2
93 131 1
98 131 2
99 131 1
104 131 1
106 131 1
111 131 1
1 132 7
2 132 1
3 132 2
4 132 1
5 132 3
6 132 1
7 132 1
9 132 1
10 132 1
12 132 4
13 132 2
14 132 1
15 132 1
22 132 1
24 132 1
25 132 1
26 132 1
35 132 1
46 132 1
62 132 1
70 132 1
73 132 1
78 132 1
86 132 1
98 132 1
104 132 1
116 132 2
120 132 1
1 133 2
5 133 1
7 133 2
10 133 1
11 133 1
12 133 1
14 133 1
15 133 1
59 133 1
76 133 1
2 134 1
4 134 2
5 134 1
7 134 1
8 134 2
10 134 1
11 134 1
12 134 2
13 134 2
14 134 1
15 134 1
37 134 1
45 134 1
83 134 1
86 134 1
88 134 1
1 135 2
2 135 1
3 135 1
4 135 2
5 135 2
6 135 2
7 135 1
8 135 1
10 135 1
12 135 1
14 135 2
34 135 1
37 135 1
48 135 1
76 135 1
96 135 2
101 135 1
1 136 1
2 136 1
3 136 1
4 136 1
5 136 1
6 136 2
8 136 1
9 136 1
10 136 2
11 136 3
12 136 1
13 136 3
14 136 2
15 136 2
18 136 1
24 136 1
50 136 1
57 136 1
68 136 1
103 136 1
115 136 1
1 137 2
2 137 5
5 137 3
6 137 3
7 137 1
8 137 4
9 137 2
10 137 4
11 137 4
12 137 4
13 137 7
14 137 5
15 137 1
27 137 1
29 137 1
39 137 1
40 137 1
43 137 1
62 137 1
89 137 1
98 137 1
109 137 1
115 137 1
118 137 2
1 138 3
2 138 2
4 138 1
6 138 1
8 138 1
9 138 2
11 138 2
12 138 2
13 138 5
15 138 1
18 138 1
52 138 1
53 138 1
68 138 1
90 138 1
1 139 1
7 139 1
8 139 1
11 139 2
13 139 2
14 139 1
76 139 2
90 139 1
92 139 1
113 139 1
1 140 1
2 140 3
3 140 2
4 140 2
6 140 1
7 140 4
8 140 2
9 140 1
10 140 4
11 140 4
12 140 1
14 140 1
17 140 1
42 140 1
57 140 3
78 140 1
86 140 1
87 140 1
103 140 1
113 140 1
118 140 1
1 141 2
4 141 2
6 141 1
7 141 1
8 141 4
11 141 1
12 141 1
13 141 1
26 141 1
34 141 1
43 141 1
50 141 1
52 141 1
84 141 1
92 141 1
98 141 1
1 142 4
2 142 2
3 142 3
4 142 4
5 142 6
7 142 5
8 142 4
9 142 2
10 142 1
11 142 2
12 142 3
13 142 1
14 142 2
15 142 4
16 142 1
18 142 1
23 142 1
31 142 1
37 142 2
38 142 1
43 142 1
50 142 1
52 142 1
53 142 1
62 142 1
65 142 1
71 142 1
80 142 1
83 142 1
101 142 1
103 142 1
1 143 3
2 143 1
4 143 2
5 143 2
6 143 1
8 143 1
9 143 1
13 143 2
14 143 2
15 143 1
22 143 1
59 143 1
79 143 1
87 143 1
1 144 2
2 144 2
3 144 1
5 144 1
8 144 1
10 144 2
11 144 3
12 144 4
13 144 1
15 144 2
64 144 1
65 144 1
100 144 1
101 144 1
1 145 1
2 145 11
3 145 3
4 145 5
5 145 2
6 145 3
7 145 1
8 145 3
9 145 2
10 145 6
11 145 2
13 145 6
14 145 5
15 145 3
26 145 1
28 145 1
31 145 2
34 145 1
39 145 1
63 145 1
72 145 1
73 145 1
74 145 1
84 145 2
87 145 1
88 145 1
98 145 1
112 145 1
115 145 1
118 145 1
1 146 3
2 146 2
3 146 2
4 146 2
5 146 1
6 146 3
7 146 2
8 146 2
9 146 1
10 146 1
11 146 1
15 146 2
82 146 1
105 146 2
110 146 1
120 146 1
1 147 1
2 147 4
3 147 4
4 147 1
5 147 4
6 147 2
7 147 7
8 147 3
9 147 3
10 147 6
11 147 7
12 147 5
13 147 3
14 147 2
15 147 3
20 147 1
33 147 1
39 147 1
62 147 2
83 147 1
90 147 1
98 147 1
106 147 1
1 148 4
2 148 1
3 148 4
4 148 1
5 148 1
6 148 2
7 148 1
8 148 1
9 148 2
11 148 2
12 148 2
13 148 1
14 148 1
15 148 1
20 148 1
22 148 1
39 148 1
42 148 1
55 148 1
81 148 1
92 148 1
102 148 1
113 148 1
2 149 1
3 149 1
5 149 1
6 149 1
8 149 1
9 149 2
11 149 1
12 149 2
13 149 3
14 149 1
15 149 1
21 149 1
37 149 1
40 149 1
43 149 1
98 149 1
107 149 1
116 149 1
1 150 2
2 150 1
3 150 4
5 150 2
6 150 2
7 150 1
9 150 1
11 150 1
13 150 1
15 150 2
30 150 1
50 150 1
66 150 1
76 150 1
83 150 1
2 151 2
3 151 2
4 151 2
5 151 4
6 151 1
7 151 1
8 151 1
9 151 1
10 151 3
11 151 3
12 151 1
13 151 3
14 151 3
15 151 1
20 151 1
34 151 1
61 151 1
64 151 1
72 151 1
74 151 1
76 151 1
103 151 1
110 151 2
111 151 1
120 151 1
1 152 3
2 152 3
3 152 3
4 152 3
5 152 3
6 152 4
8 152 1
9 152 5
10 152 4
11 152 7
13 152 5
14 152 2
15 152 8
21 152 1
32 152 1
33 152 2
39 152 1
58 152 1
65 152 2
66 152 1
93 152 1
104 152 1
106 152 2
109 152 1
112 152 1
116 152 1
1 153 3
2 153 3
3 153 3
4 153 2
5 153 6
6 153 5
7 153 8
8 153 3
9 153 4
10 153 5
11 153 5
12 153 4
13 153 1
14 153 2
15 153 5
19 153 1
25 153 1
40 153 1
45 153 1
60 153 1
64 153 1
70 153 1
77 153 1
78 153 1
112 153 1
1 154 4
3 154 3
4 154 1
5 154 3
6 154 1
7 154 2
8 154 3
9 154 2
10 154 3
11 154 4
13 154 3
14 154 6
15 154 3
27 154 1
36 154 1
41 154 1
44 154 1
50 154 1
62 154 1
75 154 1
78 154 1
1 155 6
2 155 5
3 155 4
4 155 1
5 155 2
6 155 5
7 155 1
9 155 1
10 155 1
11 155 1
12 155 3
13 155 4
14 155 2
15 155 4
25 155 1
27 155 1
59 155 1
63 155 1
77 155 1
82 155 1
84 155 1
87 155 1
92 155 1
94 155 1
97 155 1
98 155 1
104 155 1
117 155 1
118 155 1
1 156 1
2 156 3
3 156 3
4 156 2
5 156 6
6 156 3
7 156 7
9 156 3
10 156 5
11 156 2
13 156 4
14 156 3
15 156 3
19 156 1
20 156 1
26 156 2
39 156 1
58 156 1
86 156 1
90 156 2
91 156 1
94 156 1
108 156 1
117 156 1
120 156 1
1 157 5
2 157 4
3 157 4
4 157 3
5 157 5
6 157 4
7 157 2
8 157 5
10 157 7
11 157 6
12 157 1
14 157 1
15 157 3
16 157 1
22 157 1
24 157 1
30 157 1
45 157 1
47 157 1
53 157 1
57 157 1
58 157 2
63 157 1
64 157 1
68 157 1
71 157 1
77 157 1
90 157 1
107 157 1
2 158 1
5 158 2
9 158 2
11 158 2
12 158 1
13 158 1
14 158 2
21 158 1
76 158 1
1 159 2
2 159 3
3 159 5
4 159 4
5 159 4
6 159 2
7 159 3
8 159 2
9 159 7
10 159 1
11 159 5
12 159 2
13 159 5
14 159 3
15 159 4
16 159 1
20 159 1
30 159 1
33 159 1
39 159 1
40 159 1
59 159 1
66 159 1
71 159 1
72 159 1
85 159 1
87 159 1
88 159 1
90 159 1
100 159 1
101 159 1
106 159 1
117 159 1
1 160 9
2 160 2
3 160 3
4 160 1
5 160 2
7 160 3
8 160 2
9 160 6
10 160 2
11 160 5
12 160 3
13 160 4
14 160 3
15 160 6
17 160 1
26 160 1
31 160 1
39 160 1
61 160 2
66 160 1
74 160 1
76 160 1
87 160 1
99 160 1
111 160 1
120 160 1
1 161 1
2 161 2
3 161 2
4 161 1
6 161 2
7 161 2
9 161 2
10 161 3
11 161 2
12 161 1
13 161 1
15 161 2
23 161 1
70 161 1
79 161 1
106 161 1
2 162 1
3 162 1
4 162 1
6 162 1
11 162 2
12 162 1
13 162 1
14 162 3
15 162 1
29 162 1
60 162 1
67 162 1
68 162 1
75 162 1
85 162 1
92 162 1
98 162 1
115 162 1
1 163 2
2 163 2
3 163 1
4 163 4
6 163 2
7 163 1
8 163 2
9 163 2
10 163 3
11 163 2
12 163 2
13 163 3
14 163 1
19 163 1
56 163 1
88 163 1
105 163 1
115 163 1
1 164 1
2 164 1
3 164 1
4 164 2
5 164 2
6 164 2
7 164 4
8 164 3
9 164 3
10 164 1
12 164 2
13 164 4
14 164 1
15 164 1
27 164 1
30 164 1
33 164 1
40 164 1
41 164 1
46 164 1
79 164 1
80 164 1
82 164 1
107 164 1
116 164 1
1 165 2
2 165 1
3 165 2
4 165 4
5 165 3
6 165 2
7 165 2
8 165 2
9 165 2
10 165 1
11 165 6
12 165 5
13 165 2
14 165 3
15 165 2
16 165 1
17 165 1
22 165 1
28 165 1
32 165 1
35 165 1
43 165 1
60 165 1
76 165 1
83 165 1
85 165 1
93 165 1
98 165 1
99 165 1
103 165 1
118 165 1
1 166 3
2 166 2
3 166 5
4 166 3
5 166 4
6 166 5
7 166 2
8 166 2
9 166 4
10 166 1
11 166 2
12 166 7
13 166 2
14 166 1
15 166 1
20 166 2
23 166 1
30 166 1
55 166 1
69 166 2
82 166 1
84 166 1
85 166 1
102 166 1
103 166 1
117 166 1
118 166 1
1 167 1
2 167 1
3 167 4
4 167 1
5 167 1
6 167 2
7 167 2
8 167 3
9 167 2
10 167 3
11 167 3
12 167 2
13 167 1
14 167 7
15 167 4
58 167 1
96 167 1
107 167 1
108 167 1
109 167 1
119 167 1
1 168 5
2 168 1
3 168 3
4 168 4
5 168 3
6 168 5
7 168 2
8 168 3
9 168 7
10 168 7
11 168 2
12 168 3
13 168 1
14 168 1
15 168 5
16 168 1
36 168 1
37 168 1
38 168 1
44 168 1
47 168 1
66 168 1
77 168 1
79 168 1
85 168 1
90 168 1
96 168 1
97 168 1
103 168 1
108 168 2
110 168 1
111 168 1
120 168 1
1 169 5
2 169 1
3 169 2
4 169 1
5 169 2
6 169 4
7 169 1
8 169 2
9 169 2
10 169 1
11 169 1
13 169 4
14 169 1
15 169 2
54 169 1
62 169 1
73 169 1
82 169 1
2 170 1
3 170 2
5 170 1
6 170 1
7 170 1
8 170 1
11 170 1
12 170 2
13 170 2
14 170 1
37 170 1
82 170 1
86 170 2
1 171 2
5 171 1
10 171 1
11 171 1
12 171 1
13 171 1
14 171 1
15 171 3
47 171 1
66 171 1
68 171 1
77 171 1
84 171 1
88 171 1
118 171 1
1 172 4
2 172 1
3 172 1
4 172 3
5 172 1
6 172 4
7 172 4
8 172 3
9 172 1
10 172 3
11 172 2
12 172 3
13 172 2
14 172 5
15 172 2
20 172 1
25 172 1
42 172 1
64 172 1
86 172 1
92 172 1
99 172 1
101 172 1
105 172 1
108 172 1
111 172 1
115 172 1
1 173 4
2 173 7
3 173 1
4 173 3
5 173 2
6 173 2
8 173 4
9 173 4
10 173 5
11 173 3
12 173 7
13 173 4
14 173 3
15 173 4
21 173 1
22 173 1
23 173 1
24 173 1
35 173 1
49 173 1
52 173 1
56 173 1
59 173 1
63 173 1
65 173 1
68 173 1
75 173 1
86 173 1
89 173 1
93 173 1
101 173 1
119 173 1
1 174 4
2 174 4
3 174 5
4 174 2
5 174 2
6 174 4
7 174 5
8 174 3
9 174 3
10 174 3
11 174 1
12 174 4
13 174 5
14 174 4
15 174 5
21 174 1
29 174 1
31 174 1
36 174 2
47 174 1
63 174 4
87 174 1
98 174 1
100 174 1
106 174 2
1 175 3
2 175 3
3 175 1
4 175 5
5 175 4
6 175 1
7 175 2
8 175 3
9 175 4
10 175 3
11 175 2
12 175 6
13 175 4
14 175 1
15 175 3
16 175 1
18 175 1
48 175 1
70 175 1
81 175 1
99 175 2
109 175 1
119 175 1
1 176 2
2 176 1
5 176 1
6 176 1
7 176 2
8 176 1
9 176 1
10 176 2
11 176 2
12 176 2
13 176 1
14 176 2
15 176 1
24 176 1
44 176 1
61 176 1
67 176 1
76 176 1
89 176 1
90 176 1
109 176 1
120 176 2
1 177 6
2 177 5
3 177 5
4 177 4
5 177 5
6 177 5
7 177 2
8 177 1
10 177 1
11 177 4
12 177 4
13 177 4
14 177 1
15 177 3
21 177 1
22 177 1
26 177 1
30 177 1
36 177 1
49 177 1
70 177 1
75 177 1
80 177 2
91 177 1
94 177 1
96 177 1
99 177 1
105 177 1
117 177 1
1 178 4
3 178 1
4 178 3
5 178 1
7 178 2
8 178 4
10 178 2
11 178 1
12 178 4
14 178 1
15 178 1
28 178 1
59 178 1
60 178 1
65 178 1
107 178 2
116 178 1
120 178 1
1 179 2
2 179 4
3 179 4
4 179 2
5 179 5
6 179 2
7 179 5
8 179 1
9 179 2
10 179 1
11 179 1
12 179 1
13 179 2
34 179 1
35 179 1
45 179 1
49 179 1
59 179 1
81 179 1
114 179 2
119 179 1
1 180 4
2 180 1
3 180 4
5 180 2
6 180 4
7 180 1
8 180 3
9 180 4
10 180 3
11 180 1
13 180 2
14 180 3
15 180 5
19 180 1
40 180 1
50 180 1
55 180 1
60 180 1
108 180 1
109 180 1
116 180 1
1 181 2
3 181 1
4 181 1
5 181 1
6 181 4
8 181 1
9 181 2
11 181 1
12 181 1
14 181 1
18 181 1
19 181 1
26 181 1
45 181 1
116 181 1
1 182 3
2 182 1
4 182 2
5 182 1
6 182 4
7 182 2
8 182 2
9 182 1
10 182 4
12 182 1
13 182 2
15 182 5
17 182 1
51 182 2
57 182 1
67 182 1
70 182 1
77 182 1
95 182 1
100 182 1
1 183 3
3 183 5
4 183 2
5 183 2
7 183 1
8 183 2
9 183 1
10 183 3
11 183 3
14 183 1
15 183 2
25 183 1
33 183 1
67 183 1
89 183 1
106 183 1
120 183 2
2 184 1
3 184 2
6 184 1
8 184 1
10 184 2
13 184 2
15 184 1
58 184 1
87 184 1
114 184 2
2 185 2
4 185 1
5 185 2
7 185 1
10 185 1
11 185 1
13 185 1
15 185 1
29 185 1
36 185 1
74 185 1
87 185 1
88 185 1
91 185 1
1 186 3
2 186 1
3 186 4
4 186 2
5 186 3
6 186 4
7 186 2
8 186 1
9 186 3
10 186 3
11 186 2
12 186 2
13 186 7
14 186 3
19 186 1
32 186 1
39 186 1
52 186 1
86 186 1
89 186 1
107 186 1
1 187 3
4 187 1
5 187 1
7 187 1
8 187 1
10 187 1
13 187 1
15 187 2
45 187 1
52 187 1
1 188 2
2 188 1
6 188 1
8 188 1
10 188 3
11 188 1
12 188 1
27 188 1
81 188 1
109 188 1
111 188 1
1 189 2
2 189 2
3 189 2
4 189 2
5 189 1
7 189 4
9 189 1
10 189 2
11 189 1
12 189 2
13 189 1
14 189 1
15 189 5
37 189 1
44 189 1
62 189 1
71 189 1
79 189 1
96 189 1
100 189 1
101 189 1
110 189 1
117 189 1
118 189 1
2 190 3
3 190 3
4 190 4
5 190 1
6 190 5
7 190 2
8 190 1
9 190 1
10 190 5
11 190 2
12 190 1
14 190 2
15 190 3
58 190 1
88 190 1
95 190 1
102 190 1
120 190 1
1 191 2
3 191 1
6 191 2
7 191 2
8 191 1
10 191 1
12 191 1
13 191 1
14 191 2
15 191 1
95 191 1
112 191 2
1 192 1
2 192 2
3 192 3
4 192 2
5 192 2
6 192 2
7 192 4
8 192 2
9 192 2
10 192 3
11 192 2
12 192 5
13 192 2
14 192 3
15 192 3
18 192 1
24 192 1
29 192 1
32 192 1
38 192 1
51 192 1
65 192 1
67 192 1
68 192 2
74 192 1
77 192 1
85 192 1
98 192 1
104 192 1
109 192 1
116 192 2
1 193 4
2 193 1
3 193 5
4 193 3
5 193 4
6 193 3
7 193 4
8 193 3
9 193 1
10 193 4
11 193 5
12 193 5
13 193 5
14 193 5
15 193 4
19 193 1
23 193 1
35 193 1
60 193 1
62 193 1
69 193 1
81 193 1
98 193 1
100 193 1
103 193 1
104 193 1
111 193 1
112 193 1
116 193 1
120 193 1
1 194 1
2 194 2
3 194 1
4 194 1
5 194 3
7 194 1
8 194 1
9 194 1
13 194 2
15 194 3
75 194 1
78 194 1
88 194 1
94 194 1
101 194 1
1 195 2
2 195 4
3 195 1
4 195 1
5 195 3
6 195 3
7 195 3
8 195 2
9 195 1
10 195 1
11 195 5
12 195 3
13 195 1
14 195 3
15 195 3
18 195 1
27 195 1
34 195 1
45 195 1
51 195 1
56 195 1
60 195 1
67 195 1
68 195 1
92 195 1
96 195 1
99 195 1
1 196 2
2 196 1
3 196 2
4 196 2
5 196 3
6 196 6
7 196 8
8 196 5
9 196 1
10 196 2
11 196 1
12 196 3
13 196 1
14 196 1
15 196 2
33 196 2
45 196 1
74 196 2
82 196 1
83 196 1
113 196 1
1 197 2
2 197 2
3 197 1
4 197 3
5 197 2
7 197 2
8 197 2
9 197 2
10 197 2
11 197 2
12 197 2
13 197 3
14 197 3
15 197 2
40 197 1
59 197 1
72 197 1
85 197 1
91 197 2
95 197 1
104 197 1
1 198 2
3 198 4
4 198 3
5 198 4
6 198 1
7 198 1
8 198 2
9 198 1
10 198 2
11 198 1
12 198 2
13 198 1
14 198 1
15 198 1
31 198 1
35 198 1
63 198 1
67 198 1
68 198 1
83 198 1
101 198 1
108 198 1
113 198 1
119 198 2
1 199 3
2 199 4
4 199 3
5 199 3
6 199 1
7 199 1
8 199 3
9 199 4
10 199 4
11 199 3
12 199 3
13 199 3
14 199 4
15 199 4
22 199 1
28 199 1
47 199 1
57 199 1
58 199 1
59 199 1
73 199 1
78 199 1
101 199 1
104 199 1
118 199 1
2 200 2
4 200 1
5 200 2
6 200 3
7 200 3
8 200 2
9 200 4
10 200 1
11 200 2
13 200 2
14 200 1
15 200 3
55 200 1
87 200 1
95 200 1
110 200 1
118 200 1
1 201 1
4 201 1
6 201 1
9 201 2
10 201 3
11 201 1
13 201 1
16 201 1
18 201 1
110 201 1
1 202 3
2 202 1
3 202 2
4 202 3
5 202 1
6 202 1
7 202 1
8 202 1
10 202 1
11 202 2
13 202 5
14 202 1
15 202 1
20 202 1
27 202 1
49 202 1
63 202 1
68 202 1
76 202 1
77 202 1
103 202 1
1 203 1
2 203 2
3 203 1
4 203 2
5 203 1
7 203 1
8 203 3
10 203 3
11 203 1
12 203 1
13 203 2
46 203 1
57 203 1
58 203 2
76 203 1
77 203 1
79 203 1
1 204 1
2 204 4
4 204 3
5 204 1
7 204 7
8 204 2
9 204 1
10 204 3
11 204 1
12 204 2
14 204 1
15 204 2
32 204 1
36 204 1
40 204 1
42 204 1
62 204 1
78 204 1
84 204 1
91 204 1
93 204 2
113 204 1
115 204 1
1 205 3
2 205 1
3 205 3
5 205 1
6 205 3
7 205 1
8 205 2
9 205 3
10 205 1
11 205 4
12 205 2
13 205 4
14 205 2
15 205 1
19 205 1
28 205 1
42 205 1
49 205 1
51 205 1
59 205 1
76 205 1
86 205 1
89 205 1
90 205 1
94 205 1
96 205 1
104 205 1
113 205 1
117 205 1
2 206 4
4 206 4
5 206 1
6 206 4
8 206 1
9 206 1
11 206 3
12 206 2
13 206 1
14 206 2
15 206 2
26 206 1
28 206 1
34 206 1
51 206 2
56 206 1
67 206 1
88 206 1
102 206 1
114 206 2
1 207 1
2 207 2
3 207 2
4 207 3
5 207 3
6 207 7
7 207 2
8 207 3
10 207 3
11 207 2
12 207 6
13 207 2
14 207 6
15 207 2
16 207 1
18 207 1
19 207 1
25 207 1
26 207 1
32 207 2
40 207 1
46 207 1
47 207 1
50 207 1
58 207 1
76 207 1
85 207 1
91 207 1
96 207 1
98 207 2
116 207 1
119 207 1
120 207 1
1 208 1
2 208 2
3 208 1
4 208 3
5 208 2
6 208 3
7 208 3
8 208 6
9 208 4
10 208 4
11 208 2
12 208 3
13 208 2
14 208 2
15 208 5
39 208 1
56 208 1
66 208 1
68 208 1
76 208 1
77 208 1
84 208 1
85 208 1
100 208 1
105 208 1
112 208 1
116 208 2
118 208 1
1 209 3
3 209 2
4 209 1
5 209 4
6 209 1
7 209 4
8 209 1
9 209 4
10 209 4
11 209 1
12 209 4
13 209 2
14 209 4
15 209 3
29 209 1
41 209 1
52 209 1
54 209 1
55 209 1
69 209 1
79 209 1
83 209 1
85 209 1
88 209 1
91 209 1
93 209 1
103 209 1
1 210 1
2 210 4
3 210 5
5 210 2
6 210 3
7 210 1
8 210 5
9 210 2
10 210 1
11 210 1
12 210 3
13 210 2
14 210 1
15 210 4
23 210 1
24 210 1
41 210 1
51 210 1
53 210 1
61 210 1
62 210 1
63 210 1
76 210 1
91 210 1
96 210 1
109 210 1
111 210 1
112 210 1
115 210 1
116 210 1
1 211 5
2 211 2
3 211 2
4 211 5
5 211 1
6 211 4
7 211 2
8 211 3
9 211 7
10 211 3
11 211 3
12 211 3
13 211 1
14 211 3
15 211 5
16 211 1
17 211 1
18 211 1
30 211 1
38 211 1
44 211 1
47 211 1
52 211 1
58 211 1
64 211 1
74 211 1
75 211 1
99 211 1
107 211 1
114 211 1
118 211 1
1 212 6
2 212 2
3 212 3
4 212 2
5 212 3
6 212 2
7 212 4
8 212 3
9 212 3
10 212 5
11 212 3
12 212 5
13 212 2
14 212 4
15 212 5
43 212 1
44 212 1
50 212 1
58 212 2
64 212 1
66 212 1
76 212 1
97 212 1
107 212 1
1 213 4
2 213 4
3 213 3
4 213 5
5 213 3
6 213 1
7 213 2
8 213 6
9 213 2
10 213 3
11 213 2
12 213 1
13 213 3
14 213 3
15 213 6
19 213 1
22 213 1
28 213 2
34 213 1
57 213 1
59 213 1
62 213 1
70 213 1
76 213 2
79 213 1
85 213 1
87 213 2
90 213 1
94 213 1
109 213 1
110 213 1
1 214 2
2 214 1
3 214 3
6 214 1
7 214 3
8 214 2
9 214 1
10 214 2
11 214 1
12 214 4
13 214 3
14 214 2
15 214 1
18 214 1
26 214 1
33 214 1
34 214 1
52 214 1
64 214 1
83 214 1
89 214 1
93 214 1
98 214 1
106 214 1
108 214 2
113 214 1
116 214 1
1 215 1
2 215 1
4 215 3
5 215 1
6 215 1
7 215 3
8 215 3
9 215 2
10 215 1
11 215 1
12 215 1
13 215 1
14 215 1
15 215 3
75 215 2
82 215 1
83 215 1
1 216 2
2 216 2
3 216 2
4 216 1
5 216 1
6 216 2
7 216 3
8 216 3
9 216 1
10 216 1
11 216 3
12 216 4
14 216 1
15 216 4
20 216 1
22 216 1
24 216 1
35 216 1
45 216 1
46 216 1
73 216 1
86 216 1
91 216 1
116 216 1
1 217 6
2 217 1
3 217 1
4 217 6
5 217 2
6 217 4
8 217 3
9 217 3
10 217 1
11 217 4
12 217 4
14 217 5
15 217 5
27 217 1
47 217 1
64 217 2
73 217 1
77 217 1
78 217 1
81 217 1
87 217 2
91 217 1
96 217 1
102 217 1
114 217 1
118 217 1
119 217 1
1 218 3
2 218 5
3 218 3
4 218 4
5 218 6
6 218 4
7 218 3
8 218 3
9 218 3
10 218 2
11 218 3
12 218 6
13 218 3
15 218 2
17 218 1
27 218 1
32 218 1
36 218 1
41 218 1
64 218 1
71 218 1
75 218 1
83 218 1
87 218 1
102 218 1
104 218 1
109 218 1
111 218 2
114 218 1
116 218 1
1 219 3
2 219 4
3 219 1
4 219 3
5 219 3
6 219 4
7 219 4
8 219 2
9 219 3
11 219 4
12 219 2
13 219 5
14 219 1
15 219 1
24 219 1
25 219 1
30 219 1
33 219 1
37 219 1
45 219 1
53 219 1
55 219 1
70 219 1
71 219 1
74 219 1
84 219 1
87 219 1
92 219 1
93 219 1
97 219 1
1 220 2
2 220 6
4 220 4
5 220 4
6 220 2
7 220 4
8 220 4
9 220 3
10 220 2
11 220 4
12 220 4
13 220 2
14 220 3
15 220 5
31 220 1
39 220 1
45 220 1
62 220 1
64 220 1
69 220 1
71 220 1
74 220 1
75 220 1
79 220 1
85 220 1
103 220 2
104 220 1
112 220 1
1 221 4
2 221 7
3 221 4
4 221 5
5 221 3
6 221 2
7 221 1
8 221 4
9 221 6
10 221 3
11 221 1
12 221 4
13 221 3
14 221 7
15 221 3
18 221 1
36 221 1
37 221 1
40 221 1
42 221 1
52 221 1
57 221 1
62 221 1
64 221 1
89 221 1
95 221 1
102 221 1
104 221 1
105 221 1
116 221 1
1 222 3
2 222 1
4 222 1
5 222 2
6 222 4
7 222 7
8 222 5
9 222 4
10 222 2
11 222 1
12 222 6
13 222 1
14 222 2
15 222 4
17 222 1
23 222 1
30 222 1
37 222 1
47 222 1
48 222 3
55 222 1
67 222 1
68 222 1
71 222 1
74 222 2
80 222 1
83 222 1
93 222 1
108 222 1
112 222 1
117 222 1
1 223 1
2 223 6
3 223 6
4 223 3
5 223 1
6 223 6
7 223 3
8 223 3
9 223 1
10 223 5
11 223 2
12 223 3
13 223 5
14 223 3
15 223 3
16 223 1
36 223 1
37 223 1
46 223 1
48 223 1
50 223 1
61 223 1
64 223 1
65 223 1
76 223 1
86 223 1
87 223 1
88 223 1
90 223 1
105 223 1
117 223 1
118 223 1
120 223 1
2 224 1
3 224 4
5 224 2
7 224 3
9 224 1
10 224 1
11 224 4
12 224 3
13 224 4
14 224 1
15 224 4
19 224 1
26 224 1
47 224 1
50 224 1
72 224 1
102 224 1
104 224 1
112 224 1
4 225 2
5 225 1
6 225 2
8 225 1
9 225 1
12 225 3
14 225 1
15 225 3
34 225 1
44 225 1
49 225 1
74 225 2
76 225 1
107 225 1
1 226 1
3 226 2
7 226 2
11 226 1
12 226 1
14 226 1
15 226 1
18 226 1
43 226 1
45 226 1
69 226 1
73 226 1
1 227 2
2 227 4
3 227 1
4 227 4
5 227 4
6 227 3
7 227 3
8 227 3
9 227 6
10 227 4
11 227 6
12 227 2
13 227 1
14 227 2
15 227 3
19 227 2
20 227 1
56 227 1
63 227 2
66 227 1
68 227 1
71 227 1
72 227 1
74 227 1
80 227 1
88 227 1
92 227 1
107 227 1
111 227 1
116 227 1
118 227 1
119 227 1
1 228 2
2 228 5
3 228 2
4 228 6
5 228 2
6 228 1
8 228 3
9 228 1
10 228 2
11 228 3
12 228 2
13 228 2
14 228 5
15 228 1
16 228 1
20 228 1
21 228 1
35 228 1
49 228 1
67 228 2
75 228 1
76 228 1
87 228 2
108 228 1
113 228 2
117 228 1
1 229 1
2 229 1
3 229 3
4 229 4
5 229 1
6 229 1
7 229 2
9 229 1
12 229 1
41 229 1
42 229 1
64 229 1
93 229 1
98 229 1
99 229 1
1 230 5
2 230 6
3 230 6
4 230 6
5 230 2
6 230 3
7 230 2
8 230 3
9 230 3
10 230 1
12 230 3
13 230 3
15 230 1
18 230 1
29 230 1
59 230 1
66 230 1
72 230 1
80 230 1
104 230 1
114 230 1
116 230 1
120 230 2
1 231 2
2 231 7
3 231 6
4 231 4
5 231 3
6 231 4
7 231 5
8 231 1
9 231 4
10 231 1
11 231 2
12 231 1
13 231 2
14 231 8
15 231 3
22 231 1
57 231 1
58 231 1
61 231 1
76 231 1
81 231 2
84 231 1
87 231 1
103 231 1
112 231 1
114 231 1
115 231 1
1 232 2
2 232 4
3 232 1
4 232 2
5 232 4
6 232 1
7 232 3
8 232 8
9 232 2
10 232 2
12 232 4
13 232 3
14 232 1
15 232 3
21 232 1
38 232 1
49 232 1
57 232 1
68 232 1
75 232 2
78 232 1
98 232 1
100 232 1
106 232 1
107 232 1
118 232 2
1 233 1
2 233 4
3 233 4
4 233 1
5 233 5
6 233 2
7 233 7
9 233 7
10 233 6
11 233 4
12 233 2
13 233 2
14 233 6
15 233 3
38 233 1
48 233 1
50 233 1
52 233 1
54 233 1
58 233 1
82 233 2
85 233 1
100 233 1
104 233 1
107 233 1
109 233 1
112 233 1
115 233 1
117 233 1
1 234 1
3 234 1
5 234 1
7 234 3
8 234 1
9 234 1
10 234 3
12 234 2
13 234 1
14 234 1
15 234 1
18 234 1
51 234 1
54 234 2
63 234 1
66 234 1
95 234 1
113 234 1
1 235 1
3 235 1
4 235 1
5 235 1
6 235 2
7 235 2
8 235 1
9 235 2
11 235 1
15 235 1
56 235 1
1 236 4
2 236 4
3 236 1
4 236 2
5 236 3
6 236 1
7 236 1
8 236 2
9 236 2
10 236 3
11 236 1
12 236 2
15 236 5
19 236 1
22 236 1
30 236 1
33 236 1
38 236 1
49 236 1
55 236 1
64 236 2
73 236 1
85 236 1
114 236 1
2 237 1
3 237 3
4 237 2
5 237 2
6 237 3
7 237 1
8 237 1
10 237 2
11 237 3
14 237 1
15 237 3
92 237 1
111 237 1
118 237 2
1 238 1
2 238 3
3 238 3
5 238 1
6 238 1
8 238 1
9 238 1
11 238 1
13 238 2
14 238 2
80 238 1
97 238 1
105 238 1
115 238 1
1 239 4
3 239 2
4 239 3
5 239 2
7 239 4
8 239 2
9 239 2
11 239 1
12 239 1
13 239 2
14 239 3
15 239 2
35 239 1
41 239 1
57 239 1
64 239 2
79 239 1
108 239 1
111 239 1
113 239 1
1 240 5
2 240 4
3 240 4
4 240 2
5 240 2
6 240 2
7 240 5
8 240 3
9 240 3
10 240 2
11 240 4
12 240 2
13 240 2
14 240 4
15 240 3
16 240 1
22 240 1
31 240 1
44 240 1
51 240 1
59 240 1
67 240 1
80 240 1
82 240 1
98 240 1
105 240 1
1 241 3
2 241 3
3 241 4
4 241 1
5 241 2
6 241 4
7 241 1
8 241 6
9 241 2
10 241 6
11 241 3
12 241 2
14 241 1
15 241 3
33 241 1
41 241 1
47 241 1
48 241 1
55 241 1
57 241 1
59 241 1
62 241 1
64 241 2
74 241 1
79 241 1
81 241 1
88 241 1
115 241 1
117 241 2
1 242 1
2 242 4
3 242 3
4 242 3
5 242 3
6 242 4
7 242 2
8 242 2
9 242 4
10 242 2
11 242 2
12 242 1
13 242 2
14 242 3
15 242 3
21 242 1
24 242 1
28 242 1
60 242 1
67 242 1
72 242 1
75 242 1
90 242 1
91 242 1
93 242 1
107 242 1
117 242 1
1 243 3
2 243 2
4 243 1
5 243 1
6 243 1
7 243 1
8 243 1
10 243 3
11 243 4
13 243 3
14 243 3
15 243 3
17 243 1
31 243 1
40 243 1
49 243 2
51 243 1
65 243 2
66 243 1
85 243 1
86 243 1
94 243 1
98 243 1
116 243 1
1 244 3
2 244 4
3 244 3
4 244 3
5 244 5
6 244 4
7 244 2
8 244 4
9 244 5
10 244 8
11 244 4
12 244 4
13 244 1
14 244 3
15 244 3
27 244 1
34 244 1
49 244 1
60 244 1
72 244 2
84 244 1
87 244 1
97 244 1
100 244 1
101 244 1
105 244 1
108 244 1
113 244 1
118 244 1
1 245 8
2 245 2
3 245 3
4 245 5
5 245 1
6 245 2
7 245 1
8 245 2
10 245 3
11 245 1
12 245 4
13 245 1
14 245 4
15 245 1
17 245 1
19 245 1
22 245 1
25 245 1
40 245 1
41 245 1
45 245 1
60 245 1
63 245 1
67 245 1
86 245 1
90 245 1
96 245 1
100 245 1
102 245 1
116 245 1
119 245 1
2 246 1
4 246 2
5 246 1
6 246 2
7 246 4
8 246 1
9 246 3
10 246 1
11 246 3
12 246 1
14 246 2
15 246 1
31 246 1
42 246 1
51 246 1
65 246 1
67 246 1
92 246 1
105 246 1
114 246 1
3 247 1
4 247 1
6 247 1
7 247 2
10 247 3
11 247 1
12 247 1
13 247 1
14 247 1
15 247 1
43 247 1
53 247 1
96 247 1
114 247 1
115 247 1
1 248 5
2 248 1
3 248 1
4 248 4
5 248 5
6 248 1
7 248 3
8 248 2
9 248 3
10 248 2
11 248 2
12 248 3
13 248 3
14 248 3
15 248 2
18 248 1
23 248 2
25 248 1
29 248 1
49 248 1
50 248 1
52 248 2
72 248 2
78 248 1
87 248 1
101 248 2
1 249 5
2 249 5
3 249 5
4 249 3
5 249 3
6 249 5
7 249 1
8 249 2
9 249 2
10 249 1
11 249 2
13 249 1
15 249 4
20 249 1
37 249 1
39 249 1
45 249 1
58 249 1
63 249 1
64 249 1
66 249 1
70 249 1
79 249 1
80 249 1
110 249 1
116 249 1
1 250 2
8 250 2
9 250 2
13 250 2
15 250 1
29 250 1
31 250 1
50 250 1
53 250 1
55 250 1
77 250 1
86 250 1
101 250 1
1 251 4
2 251 1
3 251 3
4 251 1
5 251 3
6 251 3
7 251 2
8 251 2
9 251 3
10 251 1
11 251 3
12 251 4
13 251 5
14 251 1
15 251 6
19 251 1
30 251 2
37 251 1
41 251 1
42 251 1
45 251 1
60 251 1
70 251 1
75 251 1
79 251 1
81 251 1
88 251 1
91 251 1
102 251 1
107 251 1
115 251 1
1 252 5
2 252 1
3 252 3
4 252 9
5 252 3
6 252 2
7 252 2
8 252 2
9 252 5
10 252 2
11 252 4
12 252 3
13 252 5
14 252 2
15 252 2
23 252 1
24 252 1
30 252 1
43 252 1
62 252 1
67 252 2
68 252 1
80 252 1
84 252 1
92 252 1
105 252 1
1 253 1
2 253 1
3 253 2
4 253 1
6 253 1
7 253 2
8 253 4
9 253 1
10 253 3
11 253 1
13 253 6
14 253 2
16 253 1
25 253 1
35 253 1
42 253 1
52 253 1
114 253 1
117 253 1
2 254 2
3 254 2
5 254 1
7 254 1
10 254 2
13 254 3
46 254 1
52 254 1
63 254 1
76 254 1
1 255 7
2 255 4
3 255 5
4 255 4
5 255 4
6 255 3
7 255 1
8 255 7
9 255 4
10 255 3
11 255 2
13 255 6
14 255 1
15 255 3
18 255 1
23 255 1
34 255 1
40 255 1
49 255 1
53 255 1
57 255 2
68 255 1
74 255 1
89 255 1
99 255 1
102 255 1
105 255 1
107 255 1
118 255 1
1 256 1
2 256 2
3 256 3
4 256 5
5 256 1
7 256 3
8 256 1
11 256 1
12 256 2
13 256 4
14 256 3
15 256 2
21 256 1
34 256 1
47 256 1
67 256 1
76 256 1
78 256 1
89 256 1
93 256 1
97 256 1
98 256 2
118 256 1
1 257 2
2 257 3
3 257 3
4 257 1
5 257 2
6 257 4
7 257 4
8 257 5
9 257 3
10 257 7
11 257 1
12 257 3
13 257 6
14 257 4
15 257 6
16 257 1
20 257 1
55 257 1
58 257 1
79 257 1
87 257 1
96 257 1
98 257 1
101 257 1
107 257 1
113 257 1
114 257 1
120 257 1
1 258 2
2 258 1
3 258 3
4 258 2
5 258 5
6 258 2
7 258 2
8 258 4
10 258 1
12 258 1
13 258 2
14 258 2
15 258 1
32 258 1
46 258 1
53 258 1
56 258 1
67 258 1
72 258 1
78 258 1
88 258 1
93 258 1
116 258 1
1 259 1
2 259 3
3 259 3
4 259 3
5 259 1
6 259 8
7 259 5
8 259 5
9 259 5
10 259 3
11 259 3
12 259 4
13 259 2
14 259 2
15 259 1
16 259 1
36 259 1
47 259 1
55 259 1
59 259 1
79 259 1
86 259 1
87 259 1
94 259 1
95 259 1
104 259 1
109 259 1
111 259 1
116 259 1
1 260 3
2 260 2
3 260 5
4 260 1
5 260 3
6 260 4
7 260 3
9 260 2
10 260 3
12 260 5
13 260 2
14 260 2
15 260 2
24 260 1
25 260 1
29 260 1
30 260 1
35 260 1
39 260 1
45 260 1
52 260 1
62 260 1
97 260 1
99 260 1
111 260 1
113 260 1
115 260 1
116 260 1
1 261 1
3 261 1
4 261 4
6 261 2
7 261 1
8 261 2
9 261 1
11 261 2
12 261 1
13 261 2
15 261 4
30 261 1
48 261 1
61 261 1
70 261 1
83 261 1
100 261 1
113 261 1
1 262 2
2 262 6
3 262 5
4 262 2
5 262 2
6 262 2
7 262 2
8 262 2
9 262 4
10 262 3
11 262 2
12 262 6
13 262 3
14 262 5
15 262 5
20 262 1
37 262 1
43 262 1
55 262 1
63 262 1
71 262 1
80 262 1
83 262 1
95 262 1
104 262 1
116 262 1
117 262 1
2 263 2
3 263 3
4 263 3
5 263 1
6 263 5
7 263 3
8 263 3
9 263 1
10 263 6
11 263 2
12 263 4
13 263 3
14 263 3
15 263 5
21 263 1
29 263 1
34 263 1
39 263 1
47 263 1
54 263 1
62 263 1
72 263 1
97 263 2
100 263 1
101 263 2
102 263 1
111 263 1
119 263 1
1 264 4
2 264 6
3 264 3
4 264 3
5 264 5
6 264 1
7 264 3
8 264 3
9 264 2
10 264 4
11 264 7
13 264 3
14 264 1
15 264 2
16 264 1
22 264 1
29 264 1
39 264 1
43 264 1
45 264 1
56 264 1
63 264 1
67 264 1
75 264 2
77 264 1
78 264 1
90 264 1
95 264 1
97 264 1
113 264 1
1 265 2
2 265 7
3 265 3
4 265 1
5 265 1
6 265 3
7 265 5
8 265 3
10 265 3
11 265 8
12 265 3
14 265 1
15 265 2
17 265 1
18 265 1
22 265 1
23 265 1
33 265 2
35 265 1
36 265 1
57 265 1
66 265 1
67 265 1
82 265 1
93 265 1
94 265 1
95 265 1
97 265 1
1 266 2
2 266 5
3 266 4
4 266 5
5 266 3
6 266 2
7 266 6
8 266 5
9 266 1
10 266 1
11 266 2
12 266 2
13 266 2
14 266 7
15 266 2
17 266 1
30 266 1
37 266 1
38 266 1
50 266 1
51 266 1
53 266 2
55 266 1
57 266 1
61 266 1
75 266 1
85 266 1
114 266 1
116 266 1
1 267 1
2 267 2
3 267 3
4 267 3
5 267 4
6 267 1
7 267 1
8 267 2
9 267 1
10 267 2
12 267 1
13 267 2
14 267 3
15 267 1
18 267 1
32 267 1
40 267 2
43 267 1
52 267 1
75 267 1
86 267 1
99 267 1
104 267 1
108 267 1
120 267 1
1 268 2
2 268 2
3 268 5
4 268 5
6 268 4
7 268 1
8 268 6
9 268 2
10 268 3
11 268 3
12 268 2
13 268 2
14 268 4
15 268 7
26 268 1
38 268 1
39 268 1
50 268 1
57 268 1
71 268 1
116 268 2
1 269 1
2 269 2
3 269 4
4 269 3
5 269 2
6 269 1
7 269 4
8 269 8
9 269 3
10 269 1
11 269 6
12 269 3
13 269 1
14 269 5
15 269 2
23 269 1
37 269 1
50 269 1
53 269 1
58 269 1
60 269 1
61 269 2
67 269 1
74 269 1
85 269 1
98 269 1
112 269 1
1 270 1
3 270 1
7 270 1
8 270 1
9 270 1
10 270 1
12 270 1
15 270 1
21 270 1
25 270 1
89 270 1
114 270 1
1 271 2
2 271 1
3 271 2
4 271 2
7 271 3
8 271 1
9 271 1
10 271 1
11 271 2
12 271 1
48 271 1
72 271 1
74 271 1
85 271 1
92 271 1
101 271 1
1 272 4
2 272 2
3 272 3
4 272 3
5 272 5
8 272 2
9 272 2
10 272 1
11 272 3
12 272 3
13 272 1
14 272 2
15 272 3
32 272 1
40 272 1
47 272 1
49 272 1
60 272 1
75 272 1
80 272 1
82 272 1
93 272 1
94 272 1
100 272 1
103 272 2
106 272 1
2 273 1
3 273 1
4 273 2
5 273 1
6 273 1
7 273 2
9 273 5
10 273 1
12 273 1
13 273 1
14 273 2
15 273 1
21 273 1
52 273 1
57 273 1
60 273 1
61 273 1
69 273 1
83 273 1
110 273 1
111 273 1
118 273 1
1 274 3
2 274 3
3 274 4
4 274 3
5 274 1
6 274 8
7 274 1
8 274 1
9 274 1
10 274 2
11 274 2
13 274 2
14 274 2
15 274 4
16 274 1
18 274 1
49 274 2
52 274 1
71 274 1
73 274 1
89 274 1
93 274 1
96 274 1
98 274 1
101 274 1
105 274 1
118 274 1
1 275 2
3 275 1
4 275 1
5 275 2
6 275 2
7 275 2
10 275 2
11 275 2
12 275 2
13 275 1
15 275 1
23 275 1
37 275 1
41 275 1
70 275 1
78 275 1
81 275 1
83 275 1
95 275 1
109 275 1
111 275 1
1 276 4
2 276 2
3 276 4
4 276 4
5 276 1
6 276 2
7 276 2
8 276 2
9 276 1
10 276 1
11 276 3
13 276 2
14 276 4
15 276 5
26 276 1
27 276 1
74 276 1
77 276 1
78 276 1
82 276 1
84 276 1
85 276 1
86 276 1
95 276 1
96 276 2
100 276 1
105 276 1
111 276 1
119 276 2
120 276 1
2 277 3
3 277 2
4 277 1
5 277 2
6 277 1
11 277 1
14 277 1
18 277 1
51 277 1
1 278 2
2 278 3
3 278 2
4 278 5
5 278 3
6 278 5
8 278 4
9 278 5
10 278 3
11 278 3
12 278 1
13 278 6
14 278 3
20 278 1
29 278 1
52 278 1
53 278 1
54 278 1
58 278 1
62 278 1
77 278 1
87 278 1
90 278 2
95 278 1
105 278 1
106 278 1
107 278 1
109 278 1
112 278 1
117 278 1
120 278 1
1 279 7
2 279 2
3 279 2
4 279 2
5 279 2
6 279 1
7 279 1
8 279 2
10 279 2
11 279 2
12 279 5
13 279 6
14 279 1
15 279 4
16 279 1
25 279 2
30 279 1
33 279 1
38 279 1
40 279 1
42 279 1
44 279 1
49 279 1
50 279 1
52 279 1
60 279 1
61 279 1
63 279 1
74 279 1
89 279 1
109 279 1
115 279 1
1 280 1
2 280 4
3 280 4
4 280 3
5 280 2
6 280 2
7 280 6
8 280 3
9 280 2
10 280 3
11 280 5
12 280 3
13 280 2
14 280 1
15 280 4
22 280 1
40 280 1
45 280 1
67 280 1
70 280 1
74 280 2
84 280 1
88 280 1
106 280 1
111 280 1
114 280 1
115 280 1
1 281 3
2 281 4
3 281 3
4 281 2
5 281 2
6 281 5
7 281 4
8 281 1
9 281 4
10 281 4
11 281 5
12 281 1
13 281 3
14 281 3
15 281 6
16 281 1
20 281 1
29 281 1
30 281 2
32 281 1
34 281 1
39 281 1
48 281 1
54 281 1
57 281 1
59 281 1
61 281 1
70 281 1
92 281 1
103 281 1
106 281 1
111 281 1
2 282 2
3 282 1
4 282 1
5 282 1
8 282 1
10 282 1
11 282 1
13 282 1
14 282 2
15 282 1
24 282 1
83 282 1
2 283 1
3 283 1
4 283 3
5 283 1
6 283 1
7 283 1
8 283 2
9 283 1
10 283 5
11 283 2
12 283 2
13 283 3
14 283 5
15 283 2
28 283 1
37 283 1
53 283 1
60 283 1
63 283 1
99 283 1
3 284 2
4 284 1
6 284 1
7 284 1
10 284 2
13 284 1
14 284 1
15 284 2
37 284 1
44 284 1
52 284 1
54 284 1
103 284 1
108 284 1
115 284 1
117 284 1
1 285 7
2 285 4
3 285 1
4 285 1
5 285 3
6 285 2
7 285 2
8 285 2
10 285 5
11 285 1
12 285 2
13 285 2
14 285 1
15 285 4
30 285 1
38 285 1
39 285 1
40 285 1
45 285 1
55 285 1
74 285 1
77 285 1
106 285 2
113 285 2
1 286 2
3 286 1
6 286 1
7 286 1
9 286 1
11 286 2
15 286 3
27 286 1
34 286 1
35 286 1
57 286 1
68 286 1
108 286 1
116 286 1
1 287 1
2 287 1
3 287 2
4 287 1
5 287 11
6 287 5
7 287 2
8 287 3
9 287 3
10 287 1
11 287 4
12 287 5
13 287 8
14 287 2
15 287 4
17 287 1
37 287 1
39 287 1
59 287 1
79 287 1
86 287 1
91 287 1
109 287 1
115 287 1
4 288 1
7 288 1
9 288 1
11 288 1
12 288 3
13 288 1
14 288 3
42 288 1
85 288 1
4 289 2
6 289 1
7 289 3
8 289 1
11 289 1
12 289 2
13 289 3
14 289 1
15 289 1
41 289 1
1 290 2
3 290 4
4 290 3
6 290 2
7 290 1
8 290 1
9 290 7
10 290 1
11 290 6
12 290 2
13 290 4
14 290 1
23 290 1
24 290 1
50 290 1
58 290 1
83 290 1
85 290 1
100 290 1
113 290 1
1 291 6
2 291 3
3 291 1
5 291 4
6 291 2
7 291 1
8 291 1
10 291 2
11 291 1
12 291 1
13 291 1
15 291 5
32 291 1
46 291 1
49 291 1
57 291 1
75 291 1
83 291 1
87 291 1
95 291 1
105 291 1
1 292 1
3 292 1
4 292 1
5 292 1
6 292 1
8 292 1
9 292 2
10 292 1
11 292 1
12 292 1
14 292 1
15 292 1
35 292 1
71 292 1
82 292 1
89 292 1
96 292 1
119 292 1
1 293 4
2 293 1
4 293 5
5 293 4
6 293 8
7 293 5
9 293 3
10 293 2
11 293 1
12 293 1
13 293 2
14 293 2
15 293 7
35 293 1
36 293 1
41 293 1
54 293 1
57 293 1
61 293 1
66 293 1
68 293 1
77 293 1
84 293 1
103 293 1
1 294 3
2 294 1
3 294 3
4 294 2
5 294 4
6 294 2
7 294 1
8 294 4
9 294 2
11 294 4
12 294 4
13 294 1
14 294 2
15 294 1
24 294 1
31 294 1
43 294 1
48 294 1
50 294 1
58 294 1
59 294 1
72 294 1
86 294 2
1 295 2
2 295 2
3 295 1
4 295 2
5 295 1
7 295 2
8 295 4
9 295 1
10 295 2
13 295 2
14 295 2
45 295 1
72 295 1
2 296 1
4 296 1
5 296 1
9 296 2
10 296 1
12 296 2
14 296 1
17 296 1
36 296 1
110 296 1
2 297 3
3 297 2
5 297 2
6 297 2
8 297 1
9 297 1
10 297 1
11 297 2
12 297 3
13 297 3
14 297 1
24 297 1
29 297 1
46 297 1
51 297 1
57 297 1
82 297 1
87 297 1
100 297 1
105 297 1
117 297 1
1 298 4
2 298 2
4 298 3
5 298 1
6 298 1
7 298 2
8 298 2
9 298 1
10 298 1
12 298 3
13 298 4
14 298 3
15 298 4
18 298 1
22 298 1
34 298 1
47 298 1
67 298 1
72 298 1
84 298 1
95 298 1
98 298 1
104 298 1
107 298 1
117 298 1
118 298 1
120 298 1
1 299 1
2 299 1
3 299 1
4 299 1
5 299 2
6 299 3
7 299 3
8 299 5
9 299 3
10 299 5
11 299 3
12 299 4
13 299 2
14 299 2
15 299 3
35 299 1
53 299 1
73 299 1
74 299 1
75 299 1
92 299 1
95 299 1
98 299 1
100 299 1
102 299 1
109 299 1
110 299 1
117 299 1
120 299 1
1 300 3
4 300 1
5 300 1
6 300 1
9 300 1
12 300 1
13 300 2
14 300 2
15 300 1
32 300 1
74 300 1
78 300 1
94 300 1
96 300 1
117 300 1
1 301 4
2 301 7
3 301 7
4 301 6
5 301 8
6 301 6
7 301 5
8 301 9
9 301 12
10 301 13
11 301 9
12 301 10
13 301 8
14 301 14
15 301 5
16 301 1
18 301 1
19 301 2
21 301 19
22 301 16
23 301 20
24 301 17
25 301 20
26 301 16
27 301 14
28 301 9
29 301 21
30 301 18
31 301 14
32 301 30
33 301 21
34 301 17
35 301 13
36 301 24
37 301 21
38 301 21
39 301 8
40 301 24
41 301 29
42 301 23
43 301 20
44 301 11
45 301 19
46 301 5
47 301 16
48 301 19
49 301 19
50 301 17
51 301 1
52 301 3
57 301 1
59 301 1
64 301 1
67 301 1
69 301 2
70 301 1
74 301 1
77 301 3
79 301 1
80 301 1
81 301 1
82 301 2
86 301 1
88 301 1
94 301 1
95 301 1
97 301 1
99 301 1
101 301 1
102 301 1
103 301 2
107 301 2
112 301 1
114 301 1
119 301 1
1 302 9
2 302 7
3 302 13
4 302 10
5 302 15
6 302 6
7 302 8
8 302 9
9 302 4
10 302 8
11 302 10
12 302 11
13 302 14
14 302 8
15 302 8
18 302 1
20 302 2
21 302 18
22 302 16
23 302 20
24 302 13
25 302 8
26 302 16
27 302 15
28 302 9
29 302 9
30 302 18
31 302 17
32 302 20
33 302 18
34 302 23
35 302 22
36 302 22
37 302 14
38 302 15
39 302 19
40 302 26
41 302 19
42 302 11
43 302 20
44 302 16
45 302 17
46 302 20
47 302 21
48 302 14
49 302 16
50 302 19
51 302 2
52 302 1
53 302 1
57 302 1
58 302 2
62 302 1
63 302 1
66 302 1
68 302 1
70 302 1
75 302 1
76 302 1
78 302 1
79 302 1
81 302 2
82 302 1
85 302 1
87 302 1
88 302 1
97 302 1
102 302 2
103 302 2
105 302 1
108 302 2
109 302 1
110 302 3
112 302 1
116 302 1
117 302 1
118 302 1
120 302 1
1 303 13
2 303 10
3 303 5
4 303 6
5 303 8
6 303 5
7 303 11
8 303 5
9 303 8
10 303 7
11 303 9
12 303 5
13 303 9
14 303 9
15 303 6
19 303 1
21 303 11
22 303 17
23 303 17
24 303 16
25 303 9
26 303 16
27 303 15
28 303 13
29 303 13
30 303 18
31 303 21
32 303 20
33 303 18
34 303 9
35 303 14
36 303 11
37 303 17
38 303 13
39 303 11
40 303 13
41 303 12
42 303 13
43 303 17
44 303 13
45 303 10
46 303 8
47 303 15
48 303 20
49 303 15
50 303 9
51 303 1
54 303 1
57 303 1
59 303 1
63 303 1
70 303 1
73 303 2
76 303 2
80 303 1
81 303 1
85 303 1
88 303 1
89 303 1
100 303 1
101 303 1
102 303 1
110 303 1
112 303 1
114 303 1
115 303 1
116 303 1
117 303 2
119 303 1
1 304 8
2 304 8
3 304 6
4 304 4
5 304 11
6 304 9
7 304 5
8 304 8
9 304 9
10 304 8
11 304 9
12 304 9
13 304 8
14 304 4
15 304 7
18 304 1
21 304 10
22 304 15
23 304 15
24 304 20
25 304 16
26 304 11
27 304 18
28 304 12
29 304 18
30 304 14
31 304 10
32 304 15
33 304 10
34 304 21
35 304 16
36 304 15
37 304 11
38 304 14
39 304 12
40 304 14
41 304 15
42 304 14
43 304 12
44 304 8
45 304 16
46 304 11
47 304 10
48 304 17
49 304 16
50 304 14
56 304 2
60 304 1
64 304 1
66 304 1
74 304 1
79 304 1
81 304 1
84 304 1
85 304 1
86 304 1
89 304 1
91 304 3
94 304 2
96 304 1
97 304 1
99 304 1
113 304 1
115 304 1
120 304 1
1 305 8
2 305 10
3 305 4
4 305 5
5 305 5
6 305 11
7 305 9
8 305 6
9 305 5
10 305 14
11 305 10
12 305 6
13 305 9
14 305 11
15 305 7
17 305 1
21 305 18
22 305 14
23 305 20
24 305 16
25 305 16
26 305 12
27 305 22
28 305 14
29 305 12
30 305 6
31 305 22
32 305 18
33 305 17
34 305 20
35 305 27
36 305 24
37 305 17
38 305 20
39 305 13
40 305 18
41 305 13
42 305 14
43 305 18
44 305 23
45 305 13
46 305 21
47 305 18
48 305 24
49 305 12
50 305 28
51 305 1
52 305 1
54 305 1
56 305 1
58 305 1
61 305 1
62 305 1
63 305 2
67 305 1
68 305 1
70 305 1
76 305 1
77 305 1
78 305 1
81 305 1
83 305 1
85 305 1
87 305 1
92 305 1
93 305 1
95 305 1
96 305 1
97 305 2
98 305 1
103 305 1
104 305 1
106 305 1
108 305 1
110 305 2
112 305 2
117 305 2
1 306 9
2 306 18
3 306 10
4 306 8
5 306 12
6 306 10
7 306 15
8 306 9
9 306 9
10 306 17
11 306 7
12 306 7
13 306 12
14 306 15
15 306 12
16 306 2
21 306 23
22 306 18
23 306 18
24 306 22
25 306 18
26 306 17
27 306 19
28 306 26
29 306 14
30 306 18
31 306 17
32 306 27
33 306 25
34 306 22
35 306 22
36 306 23
37 306 21
38 306 24
39 306 26
40 306 21
41 306 22
42 306 21
43 306 17
44 306 21
45 306 22
46 306 24
47 306 25
48 306 10
49 306 21
50 306 27
53 306 1
55 306 2
60 306 1
61 306 1
62 306 1
63 306 2
64 306 1
66 306 1
67 306 1
69 306 2
73 306 1
74 306 1
75 306 1
77 306 1
78 306 1
81 306 1
82 306 1
83 306 1
84 306 1
85 306 2
91 306 1
92 306 1
93 306 3
95 306 1
96 306 1
97 306 1
98 306 1
100 306 2
101 306 1
105 306 3
106 306 1
114 306 1
117 306 1
118 306 1
120 306 1
1 307 17
2 307 12
3 307 17
4 307 9
5 307 20
6 307 5
7 307 10
8 307 12
9 307 14
10 307 8
11 307 14
12 307 11
13 307 10
14 307 13
15 307 14
16 307 1
18 307 1
21 307 24
22 307 31
23 307 14
24 307 19
25 307 27
26 307 25
27 307 18
28 307 23
29 307 25
30 307 25
31 307 24
32 307 16
33 307 26
34 307 26
35 307 20
36 307 21
37 307 20
38 307 16
39 307 24
40 307 23
41 307 21
42 307 22
43 307 26
44 307 15
45 307 20
46 307 16
47 307 17
48 307 20
49 307 26
50 307 30
51 307 2
53 307 1
56 307 1
57 307 1
59 307 1
60 307 2
61 307 1
63 307 2
64 307 1
68 307 1
70 307 1
71 307 1
74 307 1
76 307 2
77 307 1
78 307 1
79 307 2
81 307 1
82 307 1
84 307 2
87 307 1
88 307 1
89 307 1
91 307 1
95 307 1
98 307 1
101 307 1
105 307 2
106 307 2
113 307 2
114 307 1
116 307 1
117 307 1
1 308 3
2 308 13
3 308 10
4 308 5
5 308 11
6 308 6
7 308 7
8 308 8
9 308 6
10 308 10
11 308 7
12 308 8
13 308 6
14 308 11
15 308 17
16 308 1
19 308 1
20 308 1
21 308 15
22 308 14
23 308 18
24 308 11
25 308 14
26 308 19
27 308 11
28 308 6
29 308 24
30 308 8
31 308 15
32 308 12
33 308 12
34 308 14
35 308 17
36 308 14
37 308 15
38 308 14
39 308 16
40 308 15
41 308 12
42 308 17
43 308 15
44 308 19
45 308 20
46 308 18
47 308 14
48 308 16
49 308 21
50 308 13
54 308 1
56 308 2
59 308 1
64 308 1
65 308 1
69 308 1
86 308 2
87 308 1
96 308 1
102 308 1
104 308 1
105 308 2
107 308 1
108 308 2
114 308 1
115 308 1
118 308 2
119 308 1
1 309 7
2 309 11
3 309 11
4 309 9
5 309 10
6 309 10
7 309 10
8 309 8
9 309 13
10 309 8
11 309 8
12 309 9
13 309 5
14 309 9
15 309 10
19 309 1
20 309 1
21 309 20
22 309 23
23 309 22
24 309 22
25 309 24
26 309 22
27 309 18
28 309 15
29 309 21
30 309 21
31 309 21
32 309 17
33 309 16
34 309 17
35 309 20
36 309 17
37 309 15
38 309 14
39 309 12
40 309 18
41 309 21
42 309 22
43 309 20
44 309 16
45 309 22
46 309 19
47 309 15
48 309 28
49 309 14
50 309 18
54 309 2
64 309 2
66 309 1
67 309 1
68 309 1
70 309 1
74 309 1
77 309 1
79 309 1
80 309 1
89 309 1
90 309 1
93 309 1
97 309 1
100 309 1
101 309 1
103 309 1
105 309 1
107 309 1
109 309 1
117 309 1
1 310 11
2 310 2
3 310 7
4 310 10
5 310 6
6 310 12
7 310 6
8 310 12
9 310 10
10 310 9
11 310 10
12 310 5
13 310 9
14 310 5
15 310 8
16 310 2
19 310 1
21 310 7
22 310 9
23 310 19
24 310 9
25 310 12
26 310 16
27 310 12
28 310 20
29 310 25
30 310 18
31 310 12
32 310 19
33 310 16
34 310 18
35 310 12
36 310 11
37 310 10
38 310 14
39 310 21
40 310 15
41 310 14
42 310 11
43 310 10
44 310 14
45 310 18
46 310 14
47 310 12
48 310 16
49 310 14
50 310 19
51 310 2
52 310 1
54 310 1
55 310 1
62 310 1
65 310 1
68 310 2
71 310 2
73 310 1
86 310 1
89 310 1
93 310 1
94 310 1
101 310 1
102 310 1
104 310 1
110 310 1
111 310 1
114 310 1
1 311 9
2 311 13
3 311 13
4 311 8
5 311 15
6 311 12
7 311 18
8 311 7
9 311 9
10 311 8
11 311 12
12 311 11
13 311 8
14 311 19
15 311 12
17 311 2
18 311 1
21 311 28
22 311 24
23 311 26
24 311 18
25 311 22
26 311 21
27 311 25
28 311 15
29 311 21
30 311 15
31 311 18
32 311 23
33 311 23
34 311 28
35 311 17
36 311 25
37 311 26
38 311 26
39 311 26
40 311 19
41 311 21
42 311 24
43 311 16
44 311 25
45 311 23
46 311 27
47 311 21
48 311 18
49 311 20
50 311 22
52 311 2
54 311 1
55 311 1
56 311 2
58 311 1
59 311 1
62 311 2
63 311 2
64 311 1
65 311 1
67 311 1
70 311 2
72 311 1
73 311 1
76 311 1
78 311 1
87 311 1
89 311 2
90 311 1
92 311 1
93 311 1
94 311 2
95 311 1
101 311 1
102 311 3
104 311 1
110 311 1
111 311 1
112 311 3
113 311 1
114 311 1
115 311 3
118 311 1
120 311 1
1 312 6
2 312 5
3 312 6
4 312 10
5 312 8
6 312 7
7 312 8
8 312 9
9 312 9
10 312 5
11 312 7
12 312 9
13 312 5
14 312 5
15 312 3
19 312 1
21 312 19
22 312 16
23 312 18
24 312 13
25 312 14
26 312 13
27 312 15
28 312 7
29 312 24
30 312 14
31 312 12
32 312 10
33 312 15
34 312 21
35 312 12
36 312 18
37 312 13
38 312 14
39 312 12
40 312 17
41 312 16
42 312 19
43 312 17
44 312 17
45 312 15
46 312 13
47 312 12
48 312 15
49 312 14
50 312 14
51 312 1
55 312 2
56 312 1
58 312 1
63 312 1
70 312 1
73 312 1
74 312 1
75 312 1
80 312 1
81 312 1
83 312 1
85 312 2
88 312 1
89 312 1
93 312 1
95 312 1
101 312 1
102 312 1
103 312 1
107 312 1
108 312 2
117 312 1
118 312 1
120 312 1
1 313 6
2 313 7
3 313 11
4 313 10
5 313 8
6 313 6
7 313 4
8 313 5
9 313 7
10 313 5
11 313 5
12 313 8
13 313 7
14 313 3
15 313 11
16 313 1
21 313 15
22 313 17
23 313 20
24 313 14
25 313 19
26 313 11
27 313 20
28 313 19
29 313 18
30 313 11
31 313 16
32 313 17
33 313 17
34 313 16
35 313 17
36 313 15
37 313 22
38 313 18
39 313 23
40 313 13
41 313 18
42 313 15
43 313 12
44 313 8
45 313 19
46 313 18
47 313 9
48 313 16
49 313 21
50 313 19
52 313 1
58 313 1
66 313 1
68 313 1
73 313 1
75 313 2
76 313 1
78 313 1
80 313 1
81 313 2
86 313 1
88 313 1
91 313 1
92 313 2
97 313 1
98 313 1
99 313 1
100 313 1
103 313 1
106 313 1
107 313 1
109 313 1
111 313 1
113 313 1
114 313 1
117 313 1
119 313 1
1 314 8
2 314 10
3 314 8
4 314 6
5 314 2
6 314 9
7 314 6
8 314 15
9 314 7
10 314 11
11 314 5
12 314 1
13 314 4
14 314 10
15 314 8
20 314 1
21 314 22
22 314 13
23 314 13
24 314 13
25 314 13
26 314 11
27 314 12
28 314 21
29 314 12
30 314 7
31 314 15
32 314 15
33 314 14
34 314 14
35 314 14
36 314 10
37 314 8
38 314 21
39 314 15
40 314 8
41 314 14
42 314 14
43 314 5
44 314 13
45 314 15
46 314 18
47 314 18
48 314 15
49 314 13
50 314 19
54 314 1
55 314 1
57 314 1
58 314 2
60 314 1
66 314 1
69 314 1
73 314 1
75 314 1
84 314 1
86 314 1
93 314 2
96 314 1
97 314 1
98 314 1
99 314 1
100 314 1
108 314 1
111 314 1
113 314 1
1 315 4
2 315 10
3 315 6
4 315 15
5 315 8
6 315 7
7 315 6
8 315 4
9 315 8
10 315 5
11 315 14
12 315 12
13 315 5
14 315 10
15 315 9
18 315 1
21 315 15
22 315 11
23 315 14
24 315 16
25 315 15
26 315 12
27 315 13
28 315 17
29 315 15
30 315 13
31 315 12
32 315 18
33 315 16
34 315 22
35 315 14
36 315 16
37 315 16
38 315 11
39 315 9
40 315 18
41 315 12
42 315 12
43 315 19
44 315 15
45 315 16
46 315 20
47 315 18
48 315 17
49 315 15
50 315 16
55 315 1
57 315 1
58 315 1
63 315 1
67 315 1
69 315 2
71 315 1
73 315 1
74 315 1
76 315 1
77 315 2
78 315 2
80 315 1
86 315 1
87 315 1
89 315 1
93 315 1
94 315 1
97 315 1
101 315 2
102 315 1
104 315 1
107 315 1
109 315 1
112 315 1
113 315 1
117 315 1
120 315 1
1 316 7
2 316 8
3 316 7
4 316 10
5 316 10
6 316 13
7 316 13
8 316 11
9 316 15
10 316 13
11 316 6
12 316 7
13 316 7
14 316 9
15 316 8
20 316 1
21 316 23
22 316 23
23 316 21
24 316 19
25 316 27
26 316 21
27 316 17
28 316 20
29 316 18
30 316 20
31 316 17
32 316 25
33 316 25
34 316 24
35 316 13
36 316 22
37 316 23
38 316 27
39 316 25
40 316 17
41 316 17
42 316 24
43 316 18
44 316 12
45 316 23
46 316 17
47 316 22
48 316 25
49 316 14
50 316 21
53 316 1
55 316 1
56 316 1
58 316 1
59 316 1
61 316 2
65 316 2
67 316 1
68 316 1
73 316 2
74 316 1
75 316 1
78 316 1
80 316 1
83 316 1
84 316 3
86 316 1
88 316 1
89 316 2
92 316 1
97 316 1
100 316 2
102 316 1
104 316 1
105 316 1
106 316 1
107 316 2
111 316 1
113 316 1
116 316 1
119 316 1
1 317 11
2 317 9
3 317 12
4 317 9
5 317 14
6 317 9
7 317 12
8 317 9
9 317 15
10 317 11
11 317 13
12 317 9
13 317 9
14 317 12
15 317 10
16 317 1
17 317 1
19 317 1
21 317 12
22 317 21
23 317 21
24 317 21
25 317 14
26 317 21
27 317 26
28 317 19
29 317 17
30 317 13
31 317 19
32 317 18
33 317 28
34 317 19
35 317 12
36 317 17
37 317 12
38 317 12
39 317 12
40 317 19
41 317 20
42 317 23
43 317 18
44 317 12
45 317 20
46 317 11
47 317 22
48 317 21
49 317 19
50 317 28
52 317 1
56 317 1
58 317 2
59 317 1
60 317 1
62 317 2
63 317 2
65 317 1
66 317 2
68 317 1
69 317 1
70 317 2
71 317 2
73 317 1
76 317 1
77 317 1
80 317 1
81 317 1
82 317 1
83 317 1
87 317 1
89 317 2
96 317 1
97 317 1
99 317 1
103 317 1
106 317 1
107 317 1
108 317 1
109 317 1
110 317 1
112 317 1
119 317 1
120 317 1
1 318 7
2 318 10
3 318 9
4 318 13
5 318 6
6 318 9
7 318 13
8 318 11
9 318 8
10 318 7
11 318 8
12 318 11
13 318 8
14 318 6
15 318 9
19 318 1
20 318 1
21 318 15
22 318 16
23 318 23
24 318 20
25 318 24
26 318 23
27 318 19
28 318 19
29 318 16
30 318 24
31 318 19
32 318 26
33 318 28
34 318 14
35 318 21
36 318 22
37 318 22
38 318 12
39 318 21
40 318 21
41 318 16
42 318 18
43 318 26
44 318 21
45 318 27
46 318 21
47 318 17
48 318 15
49 318 19
50 318 23
51 318 1
53 318 1
60 318 2
62 318 1
69 318 1
70 318 2
75 318 1
76 318 1
77 318 1
81 318 1
82 318 1
83 318 2
84 318 2
89 318 1
90 318 3
91 318 1
92 318 1
95 318 1
96 318 1
105 318 1
107 318 2
108 318 1
109 318 2
110 318 1
112 318 1
114 318 2
117 318 1
1 319 11
2 319 9
3 319 8
4 319 15
5 319 7
6 319 18
7 319 11
8 319 13
9 319 7
10 319 17
11 319 10
12 319 9
13 319 12
14 319 9
15 319 11
16 319 1
17 319 1
18 319 1
19 319 1
20 319 2
21 319 21
22 319 18
23 319 17
24 319 22
25 319 21
26 319 23
27 319 14
28 319 19
29 319 24
30 319 23
31 319 20
32 319 14
33 319 23
34 319 19
35 319 20
36 319 15
37 319 21
38 319 16
39 319 18
40 319 23
41 319 25
42 319 19
43 319 13
44 319 14
45 319 11
46 319 22
47 319 23
48 319 15
49 319 20
50 319 25
51 319 2
52 319 2
54 319 1
56 319 1
57 319 1
62 319 1
63 319 1
64 319 1
65 319 2
66 319 1
69 319 1
70 319 1
74 319 2
75 319 1
76 319 1
77 319 1
78 319 1
80 319 2
81 319 1
82 319 2
85 319 1
86 319 1
87 319 2
93 319 1
94 319 1
99 319 2
100 319 2
101 319 1
108 319 1
109 319 1
110 319 2
113 319 3
1 320 8
2 320 9
3 320 13
4 320 9
5 320 12
6 320 8
7 320 10
8 320 9
9 320 8
10 320 11
11 320 10
12 320 8
13 320 9
14 320 10
15 320 10
17 320 1
19 320 1
20 320 1
21 320 10
22 320 15
23 320 18
24 320 17
25 320 19
26 320 20
27 320 18
28 320 9
29 320 17
30 320 16
31 320 12
32 320 16
33 320 14
34 320 16
35 320 14
36 320 11
37 320 12
38 320 10
39 320 16
40 320 14
41 320 10
42 320 14
43 320 16
44 320 19
45 320 15
46 320 19
47 320 16
48 320 13
49 320 19
50 320 17
51 320 1
53 320 2
54 320 1
55 320 1
56 320 1
62 320 1
63 320 1
67 320 1
68 320 1
70 320 1
71 320 2
82 320 1
85 320 1
88 320 1
89 320 1
90 320 4
91 320 1
92 320 1
93 320 1
94 320 1
95 320 1
98 320 1
101 320 1
104 320 2
106 320 2
111 320 3
118 320 1
119 320 1
1 321 8
2 321 10
3 321 9
4 321 10
5 321 4
6 321 11
7 321 18
8 321 10
9 321 3
10 321 5
11 321 10
12 321 12
13 321 8
14 321 4
15 321 11
17 321 3
19 321 2
21 321 20
22 321 13
23 321 16
24 321 13
25 321 20
26 321 14
27 321 16
28 321 9
29 321 14
30 321 14
31 321 13
32 321 19
33 321 12
34 321 16
35 321 22
36 321 16
37 321 18
38 321 7
39 321 12
40 321 24
41 321 13
42 321 18
43 321 12
44 321 16
45 321 18
46 321 20
47 321 21
48 321 15
49 321 13
50 321 15
52 321 1
53 321 1
58 321 1
59 321 2
61 321 2
62 321 1
64 321 3
65 321 1
67 321 1
69 321 1
70 321 1
71 321 1
72 321 2
73 321 2
74 321 1
79 321 1
80 321 1
82 321 1
84 321 1
87 321 1
96 321 1
111 321 2
112 321 1
114 321 1
115 321 1
1 322 12
2 322 14
3 322 14
4 322 14
5 322 12
6 322 14
7 322 15
8 322 11
9 322 15
10 322 12
11 322 10
12 322 10
13 322 14
14 322 11
15 322 12
17 322 1
18 322 1
21 322 21
22 322 22
23 322 17
24 322 14
25 322 27
26 322 18
27 322 21
28 322 25
29 322 23
30 322 27
31 322 19
32 322 25
33 322 15
34 322 28
35 322 23
36 322 20
37 322 31
38 322 21
39 322 15
40 322 24
41 322 25
42 322 21
43 322 13
44 322 18
45 322 26
46 322 22
47 322 27
48 322 20
49 322 33
50 322 23
56 322 1
59 322 1
60 322 3
61 322 1
66 322 1
70 322 2
71 322 1
73 322 1
74 322 1
75 322 1
78 322 1
80 322 1
82 322 1
83 322 1
87 322 1
95 322 1
98 322 1
101 322 1
105 322 2
107 322 1
108 322 1
118 322 2
120 322 2
1 323 8
2 323 7
3 323 4
4 323 10
5 323 16
6 323 9
7 323 8
8 323 12
9 323 14
10 323 10
11 323 8
12 323 4
13 323 8
14 323 12
15 323 6
16 323 1
18 323 1
21 323 17
22 323 13
23 323 12
24 323 16
25 323 14
26 323 18
27 323 14
28 323 23
29 323 11
30 323 20
31 323 12
32 323 19
33 323 15
34 323 15
35 323 16
36 323 21
37 323 15
38 323 19
39 323 14
40 323 16
41 323 12
42 323 12
43 323 14
44 323 10
45 323 20
46 323 13
47 323 16
48 323 20
49 323 11
50 323 13
51 323 1
52 323 3
53 323 3
54 323 2
55 323 1
56 323 2
59 323 1
60 323 1
64 323 1
66 323 1
67 323 2
70 323 1
72 323 1
73 323 2
77 323 1
79 323 1
80 323 1
83 323 1
85 323 2
90 323 2
92 323 1
97 323 1
99 323 1
101 323 2
103 323 1
111 323 1
112 323 1
113 323 1
1 324 14
2 324 10
3 324 9
4 324 22
5 324 12
6 324 9
7 324 12
8 324 11
9 324 11
10 324 14
11 324 12
12 324 14
13 324 10
14 324 8
15 324 21
16 324 1
18 324 1
19 324 1
20 324 2
21 324 26
22 324 23
23 324 22
24 324 32
25 324 23
26 324 21
27 324 21
28 324 18
29 324 22
30 324 19
31 324 15
32 324 16
33 324 20
34 324 14
35 324 23
36 324 19
37 324 28
38 324 22
39 324 29
40 324 31
41 324 18
42 324 22
43 324 23
44 324 18
45 324 31
46 324 16
47 324 28
48 324 22
49 324 18
50 324 26
51 324 1
52 324 1
55 324 1
60 324 1
61 324 1
62 324 2
63 324 1
64 324 1
65 324 1
66 324 1
68 324 1
71 324 2
73 324 2
74 324 1
76 324 1
77 324 1
80 324 2
82 324 1
84 324 1
85 324 1
86 324 1
87 324 1
88 324 1
89 324 1
93 324 1
94 324 1
96 324 1
97 324 1
99 324 2
100 324 1
101 324 1
102 324 1
105 324 1
106 324 1
108 324 3
109 324 1
110 324 1
115 324 1
116 324 1
120 324 1
1 325 8
2 325 13
3 325 9
4 325 9
5 325 12
6 325 6
7 325 10
8 325 7
9 325 9
10 325 8
11 325 6
12 325 4
13 325 10
14 325 9
15 325 6
20 325 1
21 325 8
22 325 9
23 325 12
24 325 15
25 325 11
26 325 10
27 325 15
28 325 10
29 325 22
30 325 10
31 325 14
32 325 12
33 325 17
34 325 9
35 325 10
36 325 8
37 325 18
38 325 14
39 325 20
40 325 14
41 325 9
42 325 9
43 325 12
44 325 13
45 325 20
46 325 9
47 325 15
48 325 13
49 325 14
50 325 16
56 325 1
64 325 1
66 325 2
68 325 1
70 325 1
71 325 1
91 325 2
92 325 1
97 325 1
99 325 1
103 325 1
104 325 1
105 325 1
108 325 2
110 325 1
111 325 1
113 325 1
115 325 1
1 326 14
2 326 3
3 326 7
4 326 12
5 326 12
6 326 8
7 326 12
8 326 4
9 326 13
10 326 11
11 326 6
12 326 10
13 326 14
14 326 14
15 326 11
17 326 2
19 326 2
21 326 18
22 326 11
23 326 15
24 326 12
25 326 14
26 326 12
27 326 30
28 326 14
29 326 15
30 326 12
31 326 20
32 326 15
33 326 10
34 326 15
35 326 15
36 326 18
37 326 15
38 326 14
39 326 13
40 326 16
41 326 18
42 326 21
43 326 12
44 326 20
45 326 20
46 326 11
47 326 12
48 326 11
49 326 12
50 326 16
55 326 2
64 326 1
66 326 1
67 326 1
69 326 1
74 326 1
77 326 3
80 326 1
94 326 1
96 326 2
97 326 1
99 326 1
106 326 1
107 326 1
108 326 1
110 326 1
117 326 1
118 326 2
120 326 1
1 327 12
2 327 13
3 327 12
4 327 14
5 327 14
6 327 19
7 327 17
8 327 12
9 327 17
10 327 10
11 327 12
12 327 10
13 327 13
14 327 20
15 327 9
18 327 2
19 327 1
21 327 26
22 327 25
23 327 19
24 327 25
25 327 23
26 327 22
27 327 18
28 327 23
29 327 24
30 327 18
31 327 25
32 327 22
33 327 23
34 327 28
35 327 23
36 327 26
37 327 21
38 327 17
39 327 27
40 327 18
41 327 21
42 327 21
43 327 21
44 327 21
45 327 23
46 327 27
47 327 19
48 327 20
49 327 19
50 327 24
51 327 2
54 327 1
56 327 1
59 327 1
62 327 1
63 327 1
66 327 1
68 327 2
70 327 1
73 327 2
78 327 1
82 327 1
86 327 2
92 327 1
97 327 3
98 327 1
101 327 1
102 327 1
105 327 1
107 327 1
108 327 3
109 327 1
110 327 1
111 327 1
112 327 1
113 327 1
116 327 1
117 327 1
120 327 3
1 328 21
2 328 7
3 328 9
4 328 10
5 328 13
6 328 9
7 328 9
8 328 7
9 328 14
10 328 8
11 328 13
12 328 14
13 328 9
14 328 11
15 328 5
16 328 1
18 328 1
20 328 1
21 328 17
22 328 25
23 328 22
24 328 14
25 328 24
26 328 17
27 328 22
28 328 10
29 328 26
30 328 29
31 328 11
32 328 30
33 328 17
34 328 16
35 328 17
36 328 28
37 328 18
38 328 27
39 328 21
40 328 18
41 328 27
42 328 23
43 328 15
44 328 13
45 328 18
46 328 21
47 328 13
48 328 21
49 328 15
50 328 19
52 328 4
53 328 1
58 328 1
62 328 1
64 328 1
73 328 1
75 328 1
76 328 1
77 328 1
78 328 1
80 328 1
82 328 1
83 328 1
84 328 1
85 328 1
86 328 2
89 328 1
92 328 1
93 328 2
95 328 1
96 328 1
100 328 1
102 328 1
104 328 1
106 328 2
107 328 1
108 328 2
110 328 1
111 328 1
113 328 1
114 328 1
119 328 2
1 329 14
2 329 17
3 329 13
4 329 7
5 329 16
6 329 3
7 329 6
8 329 8
9 329 10
10 329 8
11 329 10
12 329 9
13 329 6
14 329 8
15 329 7
17 329 1
18 329 1
19 329 3
21 329 12
22 329 19
23 329 20
24 329 13
25 329 11
26 329 13
27 329 17
28 329 15
29 329 24
30 329 18
31 329 14
32 329 21
33 329 15
34 329 13
35 329 15
36 329 14
37 329 14
38 329 12
39 329 21
40 329 11
41 329 18
42 329 12
43 329 19
44 329 17
45 329 12
46 329 15
47 329 20
48 329 17
49 329 15
50 329 19
52 329 2
54 329 2
57 329 1
60 329 1
62 329 3
65 329 1
66 329 1
67 329 1
68 329 1
79 329 2
80 329 1
82 329 1
83 329 1
88 329 1
90 329 2
92 329 2
93 329 1
96 329 1
102 329 1
106 329 1
107 329 1
111 329 2
112 329 2
115 329 1
116 329 1
1 330 14
2 330 16
3 330 5
4 330 15
5 330 9
6 330 13
7 330 14
8 330 15
9 330 8
10 330 7
11 330 11
12 330 13
13 330 13
14 330 6
15 330 17
16 330 3
17 330 1
18 330 1
21 330 27
22 330 30
23 330 23
24 330 25
25 330 31
26 330 25
27 330 20
28 330 18
29 330 19
30 330 22
31 330 17
32 330 25
33 330 19
34 330 23
35 330 23
36 330 25
37 330 19
38 330 30
39 330 20
40 330 15
41 330 23
42 330 25
43 330 13
44 330 16
45 330 16
46 330 18
47 330 19
48 330 24
49 330 21
50 330 14
51 330 2
57 330 1
61 330 1
66 330 3
69 330 1
70 330 1
74 330 1
75 330 1
76 330 1
78 330 1
79 330 2
81 330 1
82 330 1
84 330 1
85 330 1
86 330 1
89 330 1
90 330 1
91 330 2
93 330 2
95 330 1
96 330 1
97 330 2
100 330 1
102 330 1
107 330 1
113 330 1
115 330 2
116 330 1
118 330 1
1 331 5
2 331 9
3 331 10
4 331 8
5 331 11
6 331 15
7 331 12
8 331 6
9 331 18
10 331 14
11 331 12
12 331 9
13 331 11
14 331 7
15 331 4
21 331 16
22 331 20
23 331 20
24 331 21
25 331 23
26 331 18
27 331 17
28 331 12
29 331 15
30 331 26
31 331 20
32 331 13
33 331 16
34 331 11
35 331 25
36 331 10
37 331 19
38 331 22
39 331 24
40 331 16
41 331 17
42 331 23
43 331 15
44 331 25
45 331 14
46 331 18
47 331 21
48 331 22
49 331 15
50 331 18
54 331 1
55 331 1
57 331 1
63 331 1
64 331 1
68 331 2
70 331 2
71 331 1
72 331 1
75 331 1
79 331 1
82 331 1
84 331 1
88 331 1
90 331 1
91 331 2
92 331 2
97 331 2
98 331 2
103 331 1
104 331 2
105 331 1
106 331 1
107 331 2
108 331 2
115 331 1
116 331 1
117 331 2
118 331 1
1 332 7
2 332 7
3 332 17
4 332 10
5 332 7
6 332 11
7 332 11
8 332 12
9 332 5
10 332 6
11 332 9
12 332 5
13 332 8
14 332 9
15 332 11
16 332 3
19 332 1
21 332 21
22 332 24
23 332 18
24 332 13
25 332 18
26 332 13
27 332 20
28 332 18
29 332 19
30 332 10
31 332 17
32 332 19
33 332 16
34 332 12
35 332 18
36 332 17
37 332 16
38 332 17
39 332 16
40 332 17
41 332 7
42 332 8
43 332 18
44 332 17
45 332 19
46 332 19
47 332 14
48 332 20
49 332 15
50 332 13
51 332 1
52 332 1
53 332 1
60 332 1
66 332 1
72 332 2
77 332 2
80 332 1
82 332 1
84 332 1
87 332 1
89 332 2
94 332 1
95 332 1
101 332 1
106 332 2
113 332 3
114 332 1
115 332 1
116 332 1
118 332 1
1 333 9
2 333 2
3 333 12
4 333 5
5 333 6
6 333 9
7 333 7
8 333 11
9 333 7
10 333 4
11 333 8
12 333 9
13 333 11
14 333 2
15 333 5
18 333 1
19 333 1
20 333 1
21 333 11
22 333 9
23 333 13
24 333 9
25 333 12
26 333 10
27 333 15
28 333 14
29 333 16
30 333 19
31 333 19
32 333 17
33 333 18
34 333 14
35 333 24
36 333 10
37 333 17
38 333 11
39 333 19
40 333 14
41 333 10
42 333 17
43 333 17
44 333 17
45 333 19
46 333 10
47 333 9
48 333 21
49 333 20
50 333 9
52 333 1
53 333 1
54 333 1
55 333 1
58 333 1
60 333 1
64 333 1
66 333 1
68 333 1
69 333 1
70 333 1
71 333 2
74 333 1
76 333 1
78 333 1
81 333 1
83 333 1
85 333 1
86 333 2
88 333 2
93 333 1
96 333 1
97 333 1
104 333 1
106 333 3
107 333 1
110 333 1
113 333 1
114 333 1
115 333 1
120 333 1
1 334 12
2 334 11
3 334 4
4 334 7
5 334 8
6 334 12
7 334 5
8 334 11
9 334 10
10 334 8
11 334 14
12 334 8
13 334 8
14 334 13
15 334 6
19 334 1
21 334 13
22 334 15
23 334 16
24 334 14
25 334 10
26 334 19
27 334 21
28 334 20
29 334 17
30 334 26
31 334 24
32 334 25
33 334 16
34 334 16
35 334 20
36 334 15
37 334 16
38 334 14
39 334 12
40 334 28
41 334 15
42 334 12
43 334 28
44 334 23
45 334 27
46 334 21
47 334 14
48 334 23
49 334 17
50 334 22
56 334 1
57 334 1
58 334 1
60 334 1
64 334 2
67 334 1
73 334 1
74 334 1
79 334 1
80 334 1
81 334 1
83 334 3
87 334 1
88 334 1
90 334 2
95 334 1
101 334 1
105 334 1
109 334 1
111 334 1
114 334 1
116 334 2
117 334 3
118 334 1
1 335 8
2 335 6
3 335 5
4 335 6
5 335 5
6 335 6
7 335 10
8 335 7
9 335 10
10 335 9
11 335 8
12 335 11
13 335 4
14 335 14
15 335 10
17 335 1
19 335 1
21 335 7
22 335 16
23 335 15
24 335 12
25 335 8
26 335 12
27 335 13
28 335 21
29 335 14
30 335 14
31 335 18
32 335 15
33 335 16
34 335 10
35 335 13
36 335 14
37 335 13
38 335 15
39 335 16
40 335 16
41 335 12
42 335 18
43 335 5
44 335 16
45 335 13
46 335 25
47 335 16
48 335 20
49 335 11
50 335 15
51 335 2
53 335 1
59 335 1
60 335 1
63 335 1
64 335 1
65 335 1
67 335 1
68 335 2
69 335 1
75 335 1
76 335 2
78 335 1
79 335 1
82 335 1
84 335 1
85 335 2
87 335 1
89 335 2
90 335 1
93 335 2
95 335 2
98 335 1
102 335 1
103 335 1
105 335 1
109 335 1
115 335 1
117 335 2
118 335 1
119 335 1
1 336 13
2 336 14
3 336 9
4 336 13
5 336 18
6 336 20
7 336 11
8 336 10
9 336 14
10 336 14
11 336 6
12 336 12
13 336 11
14 336 17
15 336 12
16 336 1
19 336 1
21 336 24
22 336 26
23 336 23
24 336 16
25 336 13
26 336 15
27 336 21
28 336 23
29 336 30
30 336 19
31 336 28
32 336 19
33 336 28
34 336 21
35 336 21
36 336 19
37 336 23
38 336 19
39 336 18
40 336 23
41 336 21
42 336 20
43 336 17
44 336 23
45 336 24
46 336 28
47 336 23
48 336 35
49 336 25
50 336 19
51 336 1
54 336 1
55 336 1
57 336 1
59 336 1
60 336 1
61 336 1
62 336 1
71 336 2
73 336 1
75 336 1
76 336 1
77 336 1
78 336 1
79 336 2
83 336 1
84 336 1
86 336 2
87 336 1
88 336 2
93 336 1
95 336 1
97 336 1
98 336 2
99 336 2
102 336 3
103 336 2
104 336 1
108 336 1
109 336 1
112 336 1
116 336 1
117 336 1
119 336 1
1 337 10
2 337 12
3 337 12
4 337 15
5 337 7
6 337 6
7 337 13
8 337 11
9 337 13
10 337 11
11 337 12
12 337 14
13 337 10
14 337 15
15 337 12
21 337 24
22 337 30
23 337 27
24 337 23
25 337 21
26 337 18
27 337 18
28 337 20
29 337 19
30 337 27
31 337 29
32 337 27
33 337 16
34 337 19
35 337 19
36 337 21
37 337 20
38 337 18
39 337 28
40 337 22
41 337 27
42 337 15
43 337 17
44 337 17
45 337 24
46 337 25
47 337 20
48 337 15
49 337 20
50 337 17
52 337 1
56 337 3
57 337 1
59 337 1
64 337 1
68 337 1
70 337 2
76 337 2
79 337 2
81 337 1
82 337 1
90 337 1
92 337 1
93 337 1
94 337 1
95 337 1
98 337 1
99 337 1
100 337 1
101 337 2
103 337 1
104 337 1
107 337 2
108 337 1
109 337 1
110 337 2
112 337 2
113 337 1
115 337 1
118 337 1
120 337 2
1 338 16
2 338 9
3 338 9
4 338 9
5 338 10
6 338 11
7 338 18
8 338 22
9 338 16
10 338 7
11 338 14
12 338 9
13 338 8
14 338 10
15 338 7
18 338 1
20 338 2
21 338 21
22 338 25
23 338 28
24 338 21
25 338 18
26 338 27
27 338 15
28 338 23
29 338 23
30 338 27
31 338 23
32 338 23
33 338 24
34 338 17
35 338 22
36 338 18
37 338 21
38 338 21
39 338 16
40 338 15
41 338 14
42 338 15
43 338 35
44 338 27
45 338 21
46 338 27
47 338 23
48 338 17
49 338 20
50 338 19
51 338 1
57 338 1
60 338 1
61 338 1
65 338 1
66 338 1
67 338 1
69 338 1
71 338 1
77 338 1
78 338 1
80 338 1
81 338 1
83 338 2
84 338 2
85 338 2
86 338 2
87 338 2
88 338 1
92 338 1
94 338 2
97 338 1
99 338 2
101 338 1
103 338 1
105 338 1
107 338 1
109 338 3
113 338 1
117 338 1
1 339 7
2 339 5
3 339 5
4 339 6
5 339 6
6 339 6
7 339 11
8 339 11
9 339 9
10 339 9
11 339 9
12 339 7
13 339 9
14 339 4
15 339 9
16 339 1
18 339 1
19 339 1
21 339 9
22 339 9
23 339 7
24 339 19
25 339 26
26 339 14
27 339 12
28 339 12
29 339 17
30 339 14
31 339 13
32 339 14
33 339 18
34 339 15
35 339 8
36 339 11
37 339 7
38 339 11
39 339 17
40 339 14
41 339 7
42 339 14
43 339 18
44 339 11
45 339 11
46 339 14
47 339 13
48 339 17
49 339 9
50 339 9
52 339 1
54 339 1
55 339 1
56 339 1
59 339 1
61 339 2
64 339 1
67 339 2
72 339 1
77 339 1
80 339 2
86 339 1
87 339 1
96 339 1
97 339 1
98 339 1
101 339 1
103 339 1
106 339 1
107 339 1
112 339 1
119 339 1
1 340 12
2 340 7
3 340 6
4 340 11
5 340 8
6 340 12
7 340 6
8 340 7
9 340 8
10 340 8
11 340 6
12 340 7
13 340 13
14 340 3
15 340 8
17 340 2
18 340 1
19 340 1
20 340 2
21 340 10
22 340 12
23 340 12
24 340 12
25 340 9
26 340 18
27 340 27
28 340 17
29 340 13
30 340 16
31 340 13
32 340 8
33 340 13
34 340 15
35 340 18
36 340 13
37 340 17
38 340 10
39 340 8
40 340 8
41 340 13
42 340 16
43 340 9
44 340 8
45 340 9
46 340 11
47 340 11
48 340 17
49 340 16
50 340 17
52 340 1
54 340 1
57 340 1
58 340 1
59 340 1
66 340 1
67 340 1
70 340 1
71 340 1
79 340 1
80 340 1
90 340 1
94 340 1
110 340 1
112 340 1
115 340 1
117 340 1
120 340 2
1 341 6
2 341 6
3 341 6
4 341 10
5 341 6
6 341 13
7 341 11
8 341 14
9 341 12
10 341 12
11 341 12
12 341 14
13 341 15
14 341 16
15 341 14
16 341 1
21 341 21
22 341 12
23 341 23
24 341 13
25 341 18
26 341 13
27 341 20
28 341 18
29 341 13
30 341 20
31 341 13
32 341 13
33 341 24
34 341 11
35 341 22
36 341 26
37 341 17
38 341 12
39 341 16
40 341 21
41 341 9
42 341 19
43 341 18
44 341 17
45 341 13
46 341 13
47 341 18
48 341 16
49 341 11
50 341 15
53 341 1
56 341 1
59 341 1
60 341 1
61 341 1
67 341 1
68 341 2
72 341 1
79 341 1
82 341 1
84 341 1
85 341 1
91 341 1
93 341 2
94 341 1
101 341 1
104 341 2
105 341 1
109 341 1
110 341 1
112 341 1
114 341 1
116 341 1
117 341 1
119 341 1
120 341 1
1 342 6
2 342 16
3 342 9
4 342 3
5 342 8
6 342 5
7 342 6
8 342 6
9 342 7
10 342 8
11 342 12
12 342 4
13 342 11
14 342 6
15 342 4
16 342 1
21 342 13
22 342 12
23 342 9
24 342 15
25 342 15
26 342 16
27 342 11
28 342 11
29 342 13
30 342 16
31 342 11
32 342 11
33 342 6
34 342 14
35 342 10
36 342 16
37 342 9
38 342 19
39 342 18
40 342 16
41 342 13
42 342 13
43 342 17
44 342 15
45 342 17
46 342 9
47 342 9
48 342 12
49 342 13
50 342 15
53 342 2
55 342 1
66 342 1
67 342 2
68 342 1
70 342 1
71 342 1
73 342 1
74 342 1
77 342 1
79 342 1
86 342 1
87 342 1
90 342 1
92 342 1
96 342 1
99 342 2
101 342 1
106 342 1
107 342 1
108 342 1
111 342 1
1 343 8
2 343 6
3 343 11
4 343 10
5 343 8
6 343 8
7 343 9
8 343 8
9 343 10
10 343 5
11 343 7
12 343 6
13 343 3
14 343 4
15 343 8
19 343 1
21 343 22
22 343 11
23 343 18
24 343 11
25 343 18
26 343 12
27 343 22
28 343 16
29 343 16
30 343 12
31 343 19
32 343 15
33 343 14
34 343 11
35 343 16
36 343 16
37 343 12
38 343 12
39 343 18
40 343 10
41 343 14
42 343 16
43 343 14
44 343 16
45 343 4
46 343 13
47 343 20
48 343 14
49 343 19
50 343 16
53 343 1
55 343 1
59 343 1
66 343 1
69 343 1
71 343 1
72 343 1
74 343 1
77 343 1
79 343 1
84 343 1
85 343 1
88 343 1
89 343 1
92 343 2
94 343 1
97 343 1
101 343 2
102 343 1
103 343 2
108 343 1
119 343 1
1 344 6
2 344 9
3 344 13
4 344 8
5 344 6
6 344 9
7 344 10
8 344 9
9 344 15
10 344 6
11 344 3
12 344 7
13 344 6
14 344 8
15 344 7
19 344 1
20 344 1
21 344 15
22 344 23
23 344 16
24 344 19
25 344 15
26 344 17
27 344 14
28 344 20
29 344 15
30 344 11
31 344 15
32 344 20
33 344 13
34 344 16
35 344 16
36 344 18
37 344 22
38 344 12
39 344 15
40 344 16
41 344 15
42 344 20
43 344 16
44 344 18
45 344 26
46 344 16
47 344 12
48 344 14
49 344 15
50 344 15
51 344 1
58 344 2
61 344 2
62 344 2
63 344 1
66 344 1
67 344 1
70 344 1
86 344 2
90 344 1
97 344 1
101 344 1
102 344 1
104 344 1
106 344 1
107 344 1
109 344 1
111 344 1
115 344 1
116 344 1
118 344 2
119 344 1
1 345 11
2 345 13
3 345 7
4 345 7
5 345 6
6 345 9
7 345 15
8 345 9
9 345 10
10 345 10
11 345 6
12 345 9
13 345 14
14 345 11
15 345 8
21 345 20
22 345 21
23 345 14
24 345 20
25 345 20
26 345 17
27 345 9
28 345 26
29 345 18
30 345 16
31 345 10
32 345 9
33 345 17
34 345 13
35 345 16
36 345 19
37 345 14
38 345 16
39 345 19
40 345 12
41 345 19
42 345 20
43 345 17
44 345 27
45 345 20
46 345 13
47 345 16
48 345 23
49 345 18
50 345 26
56 345 2
60 345 2
61 345 1
66 345 1
69 345 2
75 345 2
76 345 2
78 345 1
80 345 1
82 345 1
84 345 1
87 345 1
92 345 1
94 345 2
95 345 2
96 345 2
101 345 2
102 345 2
103 345 3
108 345 1
109 345 1
110 345 1
111 345 1
112 345 2
114 345 2
115 345 1
116 345 1
1 346 5
2 346 11
3 346 7
4 346 13
5 346 2
6 346 6
7 346 8
8 346 6
9 346 8
10 346 9
11 346 10
12 346 6
13 346 8
14 346 7
15 346 6
18 346 1
21 346 9
22 346 19
23 346 14
24 346 6
25 346 17
26 346 17
27 346 17
28 346 11
29 346 20
30 346 6
31 346 26
32 346 15
33 346 11
34 346 12
35 346 10
36 346 16
37 346 13
38 346 12
39 346 19
40 346 16
41 346 11
42 346 17
43 346 13
44 346 19
45 346 11
46 346 12
47 346 12
48 346 20
49 346 15
50 346 12
51 346 1
61 346 1
65 346 1
66 346 1
67 346 1
69 346 1
71 346 1
75 346 1
77 346 1
78 346 1
79 346 1
85 346 2
86 346 1
90 346 1
92 346 1
95 346 1
98 346 1
101 346 1
105 346 2
107 346 1
108 346 1
110 346 1
112 346 1
113 346 1
114 346 1
1 347 10
2 347 10
3 347 11
4 347 9
5 347 11
6 347 14
7 347 14
8 347 8
9 347 19
10 347 14
11 347 11
12 347 14
13 347 12
14 347 5
15 347 14
16 347 1
21 347 15
22 347 16
23 347 32
24 347 18
25 347 27
26 347 21
27 347 24
28 347 21
29 347 24
30 347 29
31 347 24
32 347 29
33 347 25
34 347 24
35 347 22
36 347 21
37 347 28
38 347 19
39 347 27
40 347 16
41 347 26
42 347 27
43 347 17
44 347 25
45 347 20
46 347 20
47 347 20
48 347 25
49 347 13
50 347 24
52 347 1
55 347 2
57 347 1
63 347 1
64 347 1
65 347 1
69 347 1
73 347 1
74 347 1
78 347 5
81 347 1
82 347 1
83 347 1
85 347 2
86 347 2
87 347 1
89 347 1
92 347 1
95 347 1
104 347 1
106 347 1
112 347 1
117 347 1
118 347 1
119 347 2
120 347 2
1 348 11
2 348 13
3 348 11
4 348 14
5 348 6
6 348 17
7 348 11
8 348 21
9 348 12
10 348 14
11 348 11
12 348 12
13 348 9
14 348 4
15 348 11
16 348 1
18 348 2
19 348 1
21 348 20
22 348 14
23 348 22
24 348 22
25 348 24
26 348 18
27 348 19
28 348 20
29 348 17
30 348 20
31 348 11
32 348 15
33 348 19
34 348 23
35 348 20
36 348 20
37 348 25
38 348 22
39 348 21
40 348 15
41 348 26
42 348 18
43 348 23
44 348 18
45 348 18
46 348 17
47 348 23
48 348 24
49 348 25
50 348 20
52 348 1
55 348 1
57 348 1
59 348 1
62 348 1
65 348 2
66 348 1
69 348 2
72 348 1
76 348 1
79 348 1
81 348 1
83 348 1
85 348 1
86 348 1
88 348 1
96 348 3
100 348 1
103 348 1
104 348 1
105 348 1
107 348 1
108 348 1
109 348 1
114 348 1
118 348 1
119 348 1
120 348 1
1 349 15
2 349 7
3 349 9
4 349 7
5 349 6
6 349 8
7 349 8
8 349 8
9 349 6
10 349 7
11 349 7
12 349 7
13 349 5
14 349 6
15 349 4
16 349 1
17 349 1
21 349 14
22 349 17
23 349 14
24 349 20
25 349 13
26 349 16
27 349 12
28 349 4
29 349 14
30 349 22
31 349 16
32 349 19
33 349 19
34 349 13
35 349 19
36 349 11
37 349 9
38 349 15
39 349 15
40 349 21
41 349 18
42 349 17
43 349 14
44 349 13
45 349 14
46 349 18
47 349 10
48 349 21
49 349 22
50 349 18
59 349 1
60 349 1
61 349 1
68 349 1
72 349 2
73 349 1
75 349 1
78 349 1
79 349 1
83 349 1
84 349 1
86 349 1
94 349 1
103 349 2
105 349 1
112 349 1
120 349 1
1 350 12
2 350 8
3 350 12
4 350 11
5 350 12
6 350 18
7 350 10
8 350 7
9 350 6
10 350 19
11 350 13
12 350 13
13 350 10
14 350 10
15 350 14
20 350 1
21 350 20
22 350 21
23 350 17
24 350 19
25 350 20
26 350 24
27 350 13
28 350 19
29 350 18
30 350 22
31 350 21
32 350 21
33 350 14
34 350 22
35 350 17
36 350 26
37 350 24
38 350 17
39 350 23
40 350 17
41 350 23
42 350 30
43 350 23
44 350 19
45 350 18
46 350 12
47 350 15
48 350 18
49 350 24
50 350 25
51 350 2
52 350 1
54 350 3
59 350 2
66 350 1
70 350 2
72 350 1
73 350 1
74 350 1
76 350 1
86 350 1
87 350 1
91 350 1
93 350 2
96 350 2
98 350 1
104 350 3
105 350 1
106 350 1
108 350 2
109 350 1
110 350 1
111 350 2
113 350 1
114 350 2
1 351 8
2 351 7
3 351 13
4 351 9
5 351 8
6 351 11
7 351 4
8 351 5
9 351 7
10 351 11
11 351 6
12 351 5
13 351 11
14 351 4
15 351 7
18 351 1
21 351 18
22 351 21
23 351 16
24 351 20
25 351 14
26 351 19
27 351 17
28 351 18
29 351 12
30 351 19
31 351 17
32 351 13
33 351 10
34 351 10
35 351 14
36 351 18
37 351 18
38 351 19
39 351 17
40 351 12
41 351 15
42 351 13
43 351 23
44 351 7
45 351 19
46 351 22
47 351 16
48 351 20
49 351 21
50 351 10
52 351 1
53 351 1
55 351 2
56 351 1
58 351 1
64 351 1
67 351 1
70 351 2
77 351 1
78 351 1
81 351 1
82 351 1
85 351 1
88 351 1
89 351 1
98 351 1
100 351 2
104 351 1
109 351 1
110 351 2
113 351 1
116 351 1
1 352 7
2 352 8
3 352 8
4 352 4
5 352 7
6 352 13
7 352 7
8 352 9
9 352 6
10 352 6
11 352 7
12 352 7
13 352 7
14 352 11
15 352 8
16 352 1
19 352 1
21 352 12
22 352 14
23 352 12
24 352 12
25 352 15
26 352 13
27 352 18
28 352 17
29 352 11
30 352 15
31 352 12
32 352 10
33 352 18
34 352 8
35 352 17
36 352 14
37 352 15
38 352 7
39 352 16
40 352 15
41 352 7
42 352 20
43 352 21
44 352 12
45 352 13
46 352 17
47 352 9
48 352 12
49 352 21
50 352 22
52 352 1
54 352 2
56 352 1
58 352 1
63 352 2
72 352 1
82 352 1
83 352 1
86 352 1
90 352 1
92 352 2
93 352 2
94 352 1
96 352 1
100 352 1
101 352 1
107 352 1
108 352 1
118 352 1
1 353 8
2 353 10
3 353 7
4 353 7
5 353 11
6 353 5
7 353 10
8 353 4
9 353 6
10 353 10
11 353 7
12 353 8
13 353 11
14 353 11
15 353 8
21 353 16
22 353 16
23 353 15
24 353 9
25 353 13
26 353 17
27 353 18
28 353 14
29 353 9
30 353 10
31 353 11
32 353 19
33 353 24
34 353 12
35 353 18
36 353 11
37 353 14
38 353 11
39 353 11
40 353 17
41 353 15
42 353 12
43 353 18
44 353 11
45 353 14
46 353 20
47 353 15
48 353 10
49 353 12
50 353 13
62 353 1
64 353 1
66 353 1
67 353 1
69 353 1
70 353 1
72 353 2
73 353 2
81 353 1
85 353 2
88 353 1
89 353 1
90 353 2
91 353 2
94 353 1
95 353 1
96 353 1
97 353 1
98 353 1
104 353 1
106 353 1
110 353 1
112 353 1
114 353 1
115 353 1
118 353 1
1 354 12
2 354 10
3 354 15
4 354 8
5 354 7
6 354 9
7 354 10
8 354 9
9 354 10
10 354 9
11 354 15
12 354 9
13 354 12
14 354 7
15 354 6
20 354 2
21 354 21
22 354 14
23 354 21
24 354 22
25 354 19
26 354 26
27 354 10
28 354 16
29 354 19
30 354 16
31 354 17
32 354 6
33 354 14
34 354 18
35 354 25
36 354 14
37 354 26
38 354 14
39 354 17
40 354 16
41 354 16
42 354 25
43 354 21
44 354 22
45 354 19
46 354 16
47 354 19
48 354 17
49 354 18
50 354 24
51 354 3
52 354 1
55 354 1
60 354 3
61 354 2
64 354 2
67 354 1
69 354 1
71 354 1
73 354 2
76 354 1
77 354 1
78 354 1
81 354 1
86 354 1
91 354 3
101 354 1
103 354 1
107 354 1
115 354 1
116 354 1
119 354 2
1 355 13
2 355 7
3 355 17
4 355 10
5 355 8
6 355 5
7 355 6
8 355 12
9 355 15
10 355 15
11 355 12
12 355 8
13 355 9
14 355 12
15 355 10
21 355 21
22 355 26
23 355 23
24 355 15
25 355 21
26 355 16
27 355 27
28 355 22
29 355 20
30 355 17
31 355 21
32 355 17
33 355 10
34 355 25
35 355 14
36 355 13
37 355 21
38 355 10
39 355 20
40 355 20
41 355 13
42 355 23
43 355 20
44 355 12
45 355 19
46 355 22
47 355 14
48 355 22
49 355 18
50 355 16
53 355 1
54 355 1
55 355 2
57 355 1
59 355 2
60 355 1
67 355 1
68 355 1
72 355 3
73 355 1
75 355 2
77 355 1
80 355 1
81 355 2
86 355 2
89 355 1
96 355 1
98 355 2
102 355 1
103 355 1
105 355 1
106 355 1
107 355 1
108 355 1
109 355 2
112 355 1
114 355 3
116 355 1
117 355 1
119 355 1
1 356 10
2 356 16
3 356 6
4 356 12
5 356 9
6 356 9
7 356 9
8 356 12
9 356 10
10 356 9
11 356 7
12 356 12
13 356 10
14 356 10
15 356 6
18 356 1
20 356 1
21 356 9
22 356 14
23 356 17
24 356 17
25 356 14
26 356 25
27 356 10
28 356 19
29 356 22
30 356 26
31 356 11
32 356 13
33 356 15
34 356 17
35 356 18
36 356 17
37 356 14
38 356 24
39 356 17
40 356 13
41 356 14
42 356 20
43 356 18
44 356 15
45 356 17
46 356 16
47 356 28
48 356 20
49 356 21
50 356 12
55 356 1
57 356 1
58 356 1
59 356 1
60 356 1
61 356 1
64 356 1
66 356 1
67 356 1
70 356 1
71 356 3
73 356 2
74 356 1
75 356 2
79 356 1
85 356 1
86 356 1
88 356 2
110 356 1
112 356 1
114 356 1
116 356 2
118 356 2
1 357 5
2 357 2
3 357 12
4 357 10
5 357 12
6 357 10
7 357 8
8 357 15
9 357 10
10 357 6
11 357 10
12 357 10
13 357 11
14 357 12
15 357 11
21 357 11
22 357 16
23 357 9
24 357 20
25 357 23
26 357 25
27 357 14
28 357 26
29 357 16
30 357 10
31 357 13
32 357 16
33 357 19
34 357 23
35 357 13
36 357 17
37 357 26
38 357 13
39 357 22
40 357 23
41 357 20
42 357 17
43 357 17
44 357 20
45 357 14
46 357 18
47 357 16
48 357 18
49 357 15
50 357 21
53 357 1
54 357 1
61 357 1
62 357 1
64 357 1
69 357 1
74 357 1
76 357 2
78 357 2
79 357 2
84 357 1
88 357 1
90 357 1
91 357 2
95 357 2
98 357 1
99 357 2
102 357 1
103 357 1
104 357 1
107 357 1
108 357 1
109 357 1
110 357 1
112 357 2
115 357 2
117 357 1
119 357 1
1 358 10
2 358 14
3 358 9
4 358 12
5 358 9
6 358 11
7 358 15
8 358 7
9 358 8
10 358 14
11 358 11
12 358 12
13 358 14
14 358 9
15 358 11
17 358 1
21 358 12
22 358 16
23 358 20
24 358 12
25 358 18
26 358 13
27 358 20
28 358 17
29 358 23
30 358 18
31 358 18
32 358 28
33 358 18
34 358 10
35 358 16
36 358 22
37 358 16
38 358 24
39 358 20
40 358 15
41 358 24
42 358 19
43 358 17
44 358 20
45 358 18
46 358 24
47 358 10
48 358 12
49 358 20
50 358 14
52 358 1
53 358 1
54 358 1
56 358 1
59 358 2
60 358 1
61 358 1
62 358 1
64 358 1
77 358 1
82 358 1
88 358 1
89 358 1
90 358 2
104 358 2
107 358 3
108 358 2
109 358 1
110 358 1
114 358 1
117 358 2
118 358 1
120 358 1
1 359 11
2 359 8
3 359 19
4 359 6
5 359 17
6 359 11
7 359 9
8 359 4
9 359 21
10 359 13
11 359 10
12 359 7
13 359 10
14 359 9
15 359 9
18 359 1
19 359 2
20 359 1
21 359 23
22 359 22
23 359 21
24 359 18
25 359 29
26 359 14
27 359 15
28 359 17
29 359 18
30 359 17
31 359 26
32 359 21
33 359 21
34 359 25
35 359 22
36 359 25
37 359 24
38 359 36
39 359 17
40 359 22
41 359 24
42 359 17
43 359 16
44 359 16
45 359 17
46 359 30
47 359 28
48 359 15
49 359 13
50 359 18
52 359 1
54 359 1
55 359 1
56 359 1
60 359 1
63 359 1
64 359 2
68 359 1
73 359 2
75 359 2
77 359 1
79 359 2
80 359 1
82 359 2
83 359 1
84 359 1
85 359 2
88 359 1
89 359 2
93 359 1
102 359 3
103 359 2
106 359 2
107 359 1
114 359 2
119 359 2
120 359 2
1 360 6
2 360 7
3 360 11
4 360 10
5 360 6
6 360 10
7 360 5
8 360 6
9 360 7
10 360 5
11 360 11
12 360 9
13 360 14
14 360 6
15 360 5
16 360 1
21 360 13
22 360 23
23 360 16
24 360 21
25 360 10
26 360 14
27 360 15
28 360 13
29 360 18
30 360 14
31 360 15
32 360 14
33 360 17
34 360 16
35 360 16
36 360 24
37 360 17
38 360 13
39 360 12
40 360 14
41 360 18
42 360 18
43 360 17
44 360 14
45 360 17
46 360 17
47 360 17
48 360 12
49 360 20
50 360 25
51 360 2
52 360 1
56 360 1
58 360 2
60 360 1
63 360 1
65 360 2
71 360 1
72 360 1
74 360 1
76 360 3
77 360 1
87 360 1
89 360 2
92 360 1
99 360 1
101 360 1
104 360 1
107 360 2
111 360 2
114 360 1
1 361 7
2 361 7
3 361 5
4 361 9
5 361 6
6 361 9
7 361 10
8 361 6
9 361 6
10 361 9
11 361 2
12 361 9
13 361 8
14 361 6
15 361 9
21 361 11
22 361 19
23 361 6
24 361 18
25 361 10
26 361 12
27 361 17
28 361 19
29 361 18
30 361 17
31 361 17
32 361 17
33 361 13
34 361 14
35 361 12
36 361 16
37 361 16
38 361 14
39 361 14
40 361 11
41 361 19
42 361 15
43 361 13
44 361 23
45 361 20
46 361 16
47 361 12
48 361 16
49 361 16
50 361 10
51 361 1
52 361 1
53 361 1
63 361 1
66 361 1
68 361 1
69 361 1
71 361 2
74 361 1
77 361 1
79 361 2
80 361 1
81 361 1
85 361 1
94 361 1
96 361 1
97 361 1
98 361 1
101 361 1
103 361 1
104 361 1
105 361 2
112 361 1
120 361 1
1 362 10
2 362 5
3 362 8
4 362 10
5 362 8
6 362 7
7 362 9
8 362 6
9 362 13
10 362 12
11 362 11
12 362 7
13 362 7
14 362 10
15 362 7
21 362 11
22 362 13
23 362 22
24 362 12
25 362 19
26 362 24
27 362 18
28 362 18
29 362 14
30 362 14
31 362 16
32 362 26
33 362 20
34 362 13
35 362 19
36 362 17
37 362 18
38 362 17
39 362 16
40 362 12
41 362 16
42 362 23
43 362 18
44 362 18
45 362 17
46 362 15
47 362 19
48 362 13
49 362 17
50 362 10
53 362 2
54 362 1
55 362 2
63 362 1
64 362 2
67 362 1
69 362 1
71 362 1
72 362 1
75 362 1
76 362 2
77 362 1
79 362 1
80 362 1
83 362 1
84 362 1
86 362 1
87 362 1
88 362 1
90 362 1
91 362 1
95 362 1
96 362 1
98 362 1
99 362 1
102 362 1
103 362 2
106 362 3
110 362 1
113 362 1
115 362 1
116 362 1
118 362 1
120 362 2
1 363 10
2 363 10
3 363 14
4 363 6
5 363 12
6 363 9
7 363 13
8 363 7
9 363 8
10 363 15
11 363 8
12 363 7
13 363 16
14 363 12
15 363 13
16 363 2
17 363 1
20 363 2
21 363 31
22 363 25
23 363 22
24 363 15
25 363 23
26 363 21
27 363 19
28 363 23
29 363 28
30 363 22
31 363 16
32 363 16
33 363 18
34 363 17
35 363 19
36 363 28
37 363 20
38 363 30
39 363 20
40 363 15
41 363 23
42 363 22
43 363 23
44 363 20
45 363 21
46 363 29
47 363 19
48 363 22
49 363 27
50 363 19
55 363 1
57 363 1
59 363 2
60 363 1
63 363 1
67 363 1
68 363 1
70 363 1
72 363 1
78 363 4
79 363 1
80 363 1
86 363 1
92 363 2
94 363 2
95 363 2
98 363 1
100 363 2
105 363 1
108 363 1
109 363 1
110 363 2
112 363 1
115 363 1
116 363 3
117 363 2
1 364 18
2 364 9
3 364 11
4 364 20
5 364 15
6 364 6
7 364 10
8 364 12
9 364 15
10 364 16
11 364 7
12 364 8
13 364 14
14 364 10
15 364 11
18 364 1
21 364 16
22 364 17
23 364 20
24 364 21
25 364 17
26 364 12
27 364 18
28 364 26
29 364 17
30 364 17
31 364 21
32 364 18
33 364 23
34 364 25
35 364 16
36 364 19
37 364 20
38 364 22
39 364 20
40 364 22
41 364 18
42 364 14
43 364 16
44 364 16
45 364 10
46 364 14
47 364 16
48 364 24
49 364 28
50 364 23
53 364 1
60 364 2
67 364 1
72 364 1
79 364 1
80 364 1
84 364 1
85 364 1
87 364 1
88 364 1
92 364 1
93 364 2
95 364 1
96 364 1
98 364 1
100 364 1
101 364 1
102 364 1
103 364 1
104 364 1
106 364 1
109 364 3
111 364 1
117 364 2
119 364 4
120 364 1
1 365 5
2 365 19
3 365 12
4 365 6
5 365 13
6 365 16
7 365 12
8 365 12
9 365 10
10 365 9
11 365 18
12 365 7
13 365 12
14 365 13
15 365 15
16 365 1
19 365 3
21 365 24
22 365 17
23 365 19
24 365 15
25 365 25
26 365 19
27 365 26
28 365 22
29 365 27
30 365 20
31 365 18
32 365 30
33 365 22
34 365 20
35 365 25
36 365 24
37 365 17
38 365 31
39 365 26
40 365 21
41 365 28
42 365 22
43 365 26
44 365 17
45 365 18
46 365 21
47 365 22
48 365 17
49 365 23
50 365 14
51 365 1
52 365 1
55 365 3
56 365 1
57 365 1
60 365 1
65 365 2
66 365 3
67 365 1
68 365 1
69 365 1
70 365 1
72 365 1
78 365 2
80 365 1
82 365 1
83 365 1
87 365 1
90 365 1
93 365 1
95 365 1
96 365 2
99 365 2
100 365 1
104 365 2
106 365 1
109 365 1
113 365 1
117 365 1
119 365 3
120 365 2
1 366 15
2 366 11
3 366 15
4 366 13
5 366 16
6 366 7
7 366 14
8 366 7
9 366 13
10 366 11
11 366 9
12 366 12
13 366 11
14 366 17
15 366 19
17 366 2
21 366 29
22 366 15
23 366 29
24 366 20
25 366 22
26 366 14
27 366 21
28 366 26
29 366 24
30 366 20
31 366 20
32 366 26
33 366 23
34 366 23
35 366 14
36 366 25
37 366 20
38 366 21
39 366 21
40 366 19
41 366 26
42 366 23
43 366 20
44 366 26
45 366 29
46 366 21
47 366 16
48 366 22
49 366 20
50 366 18
51 366 1
53 366 2
55 366 1
56 366 1
57 366 4
61 366 1
63 366 2
65 366 1
66 366 1
67 366 1
68 366 1
71 366 2
75 366 1
77 366 1
80 366 2
82 366 1
84 366 1
86 366 2
88 366 2
91 366 2
92 366 1
96 366 1
99 366 1
100 366 2
101 366 1
104 366 1
109 366 1
110 366 1
111 366 1
114 366 3
115 366 1
116 366 1
119 366 1
1 367 7
2 367 11
3 367 11
4 367 13
5 367 9
6 367 9
7 367 7
8 367 12
9 367 9
10 367 13
11 367 6
12 367 8
13 367 5
14 367 10
15 367 9
16 367 1
21 367 19
22 367 16
23 367 13
24 367 18
25 367 13
26 367 20
27 367 15
28 367 11
29 367 22
30 367 24
31 367 17
32 367 12
33 367 20
34 367 14
35 367 18
36 367 17
37 367 16
38 367 26
39 367 12
40 367 14
41 367 14
42 367 19
43 367 12
44 367 19
45 367 21
46 367 21
47 367 10
48 367 19
49 367 31
50 367 17
54 367 3
57 367 3
59 367 1
60 367 1
61 367 1
62 367 1
63 367 1
64 367 1
66 367 3
67 367 2
69 367 1
75 367 1
76 367 1
77 367 1
81 367 2
82 367 1
84 367 1
86 367 1
88 367 1
90 367 1
92 367 1
96 367 1
98 367 1
99 367 1
100 367 1
102 367 1
103 367 1
104 367 1
107 367 1
110 367 2
112 367 1
115 367 1
1 368 11
2 368 5
3 368 9
4 368 5
5 368 10
6 368 12
7 368 5
8 368 7
9 368 6
10 368 4
11 368 8
12 368 5
13 368 5
14 368 11
15 368 8
18 368 1
21 368 17
22 368 14
23 368 13
24 368 11
25 368 10
26 368 15
27 368 15
28 368 11
29 368 11
30 368 13
31 368 14
32 368 9
33 368 9
34 368 17
35 368 15
36 368 16
37 368 13
38 368 21
39 368 19
40 368 15
41 368 13
42 368 12
43 368 20
44 368 12
45 368 11
46 368 8
47 368 9
48 368 10
49 368 10
50 368 13
52 368 1
67 368 1
68 368 1
69 368 1
71 368 1
79 368 1
87 368 1
89 368 2
94 368 1
115 368 1
118 368 1
120 368 2
1 369 14
2 369 11
3 369 9
4 369 9
5 369 10
6 369 12
7 369 12
8 369 6
9 369 14
10 369 8
11 369 7
12 369 10
13 369 7
14 369 20
15 369 11
21 369 24
22 369 8
23 369 15
24 369 16
25 369 14
26 369 18
27 369 21
28 369 20
29 369 16
30 369 14
31 369 16
32 369 16
33 369 9
34 369 10
35 369 17
36 369 10
37 369 12
38 369 10
39 369 18
40 369 17
41 369 17
42 369 15
43 369 22
44 369 25
45 369 15
46 369 17
47 369 15
48 369 19
49 369 15
50 369 17
53 369 2
57 369 1
64 369 1
65 369 1
68 369 1
69 369 2
72 369 1
73 369 1
79 369 2
82 369 1
86 369 1
87 369 1
90 369 1
94 369 1
95 369 1
96 369 2
101 369 2
102 369 1
103 369 1
104 369 1
106 369 1
108 369 1
112 369 1
115 369 1
116 369 2
118 369 1
1 370 7
2 370 10
3 370 11
4 370 12
5 370 14
6 370 7
7 370 6
8 370 7
9 370 10
10 370 13
11 370 9
12 370 8
13 370 15
14 370 15
15 370 9
17 370 2
19 370 1
21 370 20
22 370 24
23 370 13
24 370 21
25 370 18
26 370 15
27 370 22
28 370 16
29 370 19
30 370 19
31 370 21
32 370 19
33 370 20
34 370 22
35 370 24
36 370 17
37 370 20
38 370 27
39 370 16
40 370 20
41 370 16
42 370 29
43 370 18
44 370 17
45 370 13
46 370 14
47 370 19
48 370 23
49 370 24
50 370 24
58 370 1
59 370 1
67 370 1
68 370 1
69 370 2
74 370 2
75 370 1
76 370 1
77 370 1
78 370 1
80 370 1
82 370 1
83 370 1
86 370 1
88 370 1
90 370 4
91 370 1
92 370 1
95 370 1
96 370 1
97 370 1
100 370 1
101 370 1
103 370 2
110 370 2
111 370 1
112 370 1
113 370 1
116 370 1
117 370 1
119 370 1
1 371 8
2 371 4
3 371 11
4 371 7
5 371 3
6 371 8
7 371 9
8 371 7
9 371 12
10 371 2
11 371 4
12 371 7
13 371 8
14 371 5
15 371 11
17 371 1
20 371 1
21 371 11
22 371 10
23 371 6
24 371 11
25 371 9
26 371 12
27 371 15
28 371 13
29 371 12
30 371 18
31 371 16
32 371 18
33 371 10
34 371 10
35 371 15
36 371 10
37 371 16
38 371 6
39 371 15
40 371 14
41 371 22
42 371 12
43 371 21
44 371 17
45 371 25
46 371 14
47 371 12
48 371 9
49 371 17
50 371 13
56 371 1
58 371 2
61 371 1
62 371 1
65 371 1
69 371 1
70 371 1
73 371 1
75 371 1
77 371 1
81 371 2
83 371 1
88 371 2
89 371 1
92 371 1
95 371 2
96 371 1
97 371 2
99 371 1
101 371 1
106 371 1
113 371 1
118 371 1
119 371 1
120 371 1
1 372 8
2 372 8
3 372 6
4 372 10
5 372 12
6 372 9
7 372 15
8 372 8
9 372 5
10 372 6
11 372 13
12 372 13
13 372 7
14 372 10
15 372 9
17 372 1
18 372 1
20 372 1
21 372 16
22 372 13
23 372 11
24 372 22
25 372 17
26 372 21
27 372 18
28 372 20
29 372 24
30 372 16
31 372 16
32 372 14
33 372 14
34 372 18
35 372 13
36 372 14
37 372 21
38 372 18
39 372 16
40 372 22
41 372 11
42 372 7
43 372 21
44 372 21
45 372 9
46 372 17
47 372 16
48 372 21
49 372 11
50 372 21
57 372 1
62 372 1
63 372 1
65 372 1
66 372 1
68 372 1
71 372 1
73 372 1
77 372 1
78 372 2
79 372 1
80 372 2
81 372 2
83 372 1
85 372 1
87 372 1
94 372 1
95 372 1
96 372 1
102 372 1
104 372 2
105 372 1
106 372 1
112 372 1
113 372 1
116 372 2
120 372 1
1 373 6
2 373 13
3 373 10
4 373 4
5 373 9
6 373 5
7 373 7
8 373 6
9 373 7
10 373 7
11 373 4
12 373 5
13 373 10
14 373 4
15 373 13
16 373 2
19 373 2
21 373 15
22 373 16
23 373 15
24 373 22
25 373 16
26 373 15
27 373 15
28 373 13
29 373 10
30 373 16
31 373 15
32 373 12
33 373 10
34 373 12
35 373 12
36 373 19
37 373 15
38 373 8
39 373 12
40 373 14
41 373 12
42 373 17
43 373 22
44 373 12
45 373 12
46 373 6
47 373 21
48 373 9
49 373 15
50 373 19
54 373 1
59 373 1
60 373 1
64 373 3
66 373 1
69 373 2
70 373 1
74 373 1
78 373 1
87 373 1
88 373 2
89 373 1
91 373 1
92 373 1
93 373 1
95 373 1
98 373 2
100 373 1
101 373 1
104 373 1
105 373 1
108 373 1
111 373 1
113 373 1
114 373 3
116 373 1
117 373 1
1 374 11
2 374 14
3 374 4
4 374 13
5 374 13
6 374 11
7 374 21
8 374 11
9 374 13
10 374 10
11 374 13
12 374 9
13 374 10
14 374 14
15 374 10
16 374 1
17 374 1
18 374 1
19 374 1
20 374 1
21 374 22
22 374 22
23 374 19
24 374 16
25 374 20
26 374 31
27 374 22
28 374 20
29 374 24
30 374 19
31 374 18
32 374 21
33 374 37
34 374 20
35 374 26
36 374 26
37 374 19
38 374 29
39 374 20
40 374 27
41 374 13
42 374 15
43 374 19
44 374 24
45 374 23
46 374 28
47 374 23
48 374 15
49 374 17
50 374 19
51 374 1
55 374 2
57 374 2
58 374 1
61 374 1
63 374 1
64 374 1
65 374 1
66 374 1
72 374 1
76 374 1
78 374 1
82 374 1
83 374 1
84 374 1
85 374 4
86 374 1
88 374 1
89 374 1
92 374 1
96 374 1
97 374 3
98 374 1
100 374 2
101 374 2
110 374 1
111 374 1
112 374 2
113 374 1
115 374 3
116 374 2
117 374 1
118 374 1
119 374 1
120 374 1
1 375 8
2 375 7
3 375 13
4 375 15
5 375 15
6 375 14
7 375 19
8 375 12
9 375 11
10 375 15
11 375 15
12 375 9
13 375 10
14 375 13
15 375 16
16 375 2
20 375 1
21 375 18
22 375 14
23 375 15
24 375 23
25 375 22
26 375 23
27 375 19
28 375 20
29 375 26
30 375 14
31 375 15
32 375 22
33 375 18
34 375 11
35 375 21
36 375 28
37 375 28
38 375 26
39 375 18
40 375 19
41 375 28
42 375 19
43 375 23
44 375 23
45 375 18
46 375 21
47 375 14
48 375 28
49 375 25
50 375 18
52 375 1
54 375 2
57 375 1
59 375 1
61 375 1
62 375 2
63 375 1
65 375 1
66 375 2
67 375 2
70 375 1
71 375 1
72 375 1
73 375 1
75 375 2
77 375 1
78 375 1
79 375 1
80 375 3
82 375 2
83 375 1
84 375 2
85 375 1
87 375 1
91 375 1
93 375 1
95 375 1
96 375 1
99 375 1
100 375 1
102 375 1
105 375 1
111 375 1
112 375 1
117 375 1
118 375 1
120 375 1
1 376 14
2 376 9
3 376 9
4 376 8
5 376 4
6 376 12
7 376 12
8 376 15
9 376 10
10 376 13
11 376 18
12 376 11
13 376 12
14 376 14
15 376 16
16 376 1
17 376 1
18 376 1
19 376 1
21 376 21
22 376 22
23 376 21
24 376 29
25 376 29
26 376 15
27 376 22
28 376 24
29 376 29
30 376 21
31 376 22
32 376 13
33 376 15
34 376 22
35 376 25
36 376 17
37 376 24
38 376 29
39 376 22
40 376 21
41 376 26
42 376 22
43 376 18
44 376 16
45 376 18
46 376 27
47 376 19
48 376 17
49 376 18
50 376 22
51 376 1
53 376 2
55 376 1
56 376 1
59 376 1
60 376 1
66 376 1
67 376 2
69 376 1
70 376 1
71 376 1
74 376 1
75 376 1
76 376 1
77 376 2
83 376 2
84 376 1
87 376 1
90 376 2
91 376 2
96 376 2
98 376 1
99 376 1
101 376 1
102 376 1
104 376 1
105 376 1
107 376 1
110 376 1
111 376 2
114 376 1
115 376 1
118 376 1
1 377 11
2 377 10
3 377 13
4 377 10
5 377 7
6 377 12
7 377 15
8 377 5
9 377 12
10 377 15
11 377 17
12 377 10
13 377 18
14 377 13
15 377 12
16 377 1
17 377 1
19 377 1
20 377 1
21 377 18
22 377 16
23 377 14
24 377 22
25 377 20
26 377 21
27 377 23
28 377 21
29 377 17
30 377 22
31 377 18
32 377 20
33 377 17
34 377 18
35 377 16
36 377 14
37 377 14
38 377 27
39 377 11
40 377 25
41 377 12
42 377 14
43 377 7
44 377 12
45 377 15
46 377 19
47 377 16
48 377 16
49 377 25
50 377 26
51 377 1
53 377 1
54 377 1
57 377 1
58 377 5
60 377 1
61 377 1
68 377 1
69 377 1
75 377 1
76 377 1
77 377 1
83 377 1
84 377 1
87 377 1
90 377 1
94 377 1
96 377 2
97 377 1
99 377 1
104 377 1
107 377 1
108 377 1
110 377 1
113 377 1
114 377 1
120 377 1
1 378 4
2 378 11
3 378 10
4 378 9
5 378 14
6 378 16
7 378 9
8 378 11
9 378 9
10 378 17
11 378 5
12 378 17
13 378 11
14 378 12
15 378 12
17 378 2
21 378 16
22 378 27
23 378 19
24 378 24
25 378 25
26 378 26
27 378 20
28 378 15
29 378 24
30 378 25
31 378 27
32 378 16
33 378 22
34 378 26
35 378 21
36 378 21
37 378 18
38 378 27
39 378 17
40 378 15
41 378 26
42 378 18
43 378 13
44 378 37
45 378 26
46 378 22
47 378 19
48 378 27
49 378 16
50 378 25
51 378 2
52 378 1
53 378 1
55 378 1
56 378 1
57 378 2
59 378 1
60 378 1
61 378 1
62 378 1
63 378 1
65 378 1
66 378 1
67 378 2
69 378 1
70 378 2
73 378 1
74 378 1
78 378 1
80 378 3
82 378 1
83 378 1
84 378 2
85 378 2
89 378 1
95 378 2
96 378 1
101 378 1
103 378 1
105 378 1
106 378 1
107 378 1
109 378 1
110 378 1
117 378 1
118 378 1
119 378 3
120 378 2
1 379 11
2 379 11
3 379 12
4 379 5
5 379 8
6 379 6
7 379 13
8 379 6
9 379 10
10 379 8
11 379 8
12 379 9
13 379 8
14 379 3
15 379 7
20 379 1
21 379 9
22 379 16
23 379 14
24 379 11
25 379 13
26 379 14
27 379 11
28 379 12
29 379 12
30 379 13
31 379 13
32 379 18
33 379 15
34 379 14
35 379 17
36 379 14
37 379 11
38 379 14
39 379 12
40 379 10
41 379 16
42 379 20
43 379 13
44 379 13
45 379 18
46 379 14
47 379 13
48 379 13
49 379 17
50 379 21
62 379 2
67 379 1
73 379 1
75 379 1
77 379 1
79 379 1
82 379 1
87 379 1
91 379 1
99 379 1
100 379 3
101 379 2
107 379 1
110 379 1
113 379 1
115 379 1
118 379 1
119 379 1
1 380 13
2 380 10
3 380 10
4 380 11
5 380 11
6 380 15
7 380 10
8 380 10
9 380 7
10 380 10
11 380 8
12 380 15
13 380 14
14 380 10
15 380 13
17 380 1
19 380 2
21 380 14
22 380 24
23 380 21
24 380 16
25 380 26
26 380 14
27 380 17
28 380 15
29 380 27
30 380 15
31 380 24
32 380 21
33 380 20
34 380 24
35 380 15
36 380 20
37 380 20
38 380 21
39 380 12
40 380 19
41 380 27
42 380 17
43 380 25
44 380 17
45 380 18
46 380 24
47 380 19
48 380 16
49 380 23
50 380 24
52 380 1
55 380 2
57 380 1
58 380 2
59 380 2
60 380 1
61 380 1
62 380 2
66 380 1
67 380 1
70 380 2
71 380 1
72 380 1
74 380 1
76 380 1
77 380 1
80 380 1
84 380 1
86 380 1
89 380 1
93 380 1
94 380 2
100 380 3
103 380 1
105 380 1
109 380 2
112 380 1
114 380 1
115 380 1
117 380 3
118 380 2
119 380 1
1 381 13
2 381 14
3 381 11
4 381 16
5 381 9
6 381 7
7 381 12
8 381 11
9 381 11
10 381 11
11 381 16
12 381 15
13 381 4
14 381 8
15 381 11
16 381 1
19 381 1
20 381 1
21 381 1
22 381 2
23 381 1
25 381 1
27 381 2
29 381 1
31 381 2
32 381 1
33 381 1
34 381 2
35 381 2
37 381 1
38 381 1
40 381 1
41 381 1
44 381 2
45 381 1
47 381 1
51 381 15
52 381 20
53 381 15
54 381 16
55 381 13
56 381 12
57 381 14
58 381 14
59 381 25
60 381 20
61 381 16
62 381 20
63 381 25
64 381 13
65 381 21
66 381 19
67 381 23
68 381 25
69 381 27
70 381 17
71 381 18
72 381 27
73 381 12
74 381 21
75 381 23
76 381 27
77 381 15
78 381 13
79 381 19
80 381 24
81 381 2
83 381 2
85 381 2
86 381 2
88 381 2
93 381 1
103 381 1
108 381 1
110 381 1
111 381 1
116 381 2
117 381 1
1 382 17
2 382 6
3 382 11
4 382 6
5 382 10
6 382 12
7 382 19
8 382 11
9 382 13
10 382 11
11 382 7
12 382 11
13 382 19
14 382 12
15 382 11
17 382 1
20 382 1
25 382 1
27 382 2
29 382 2
33 382 1
34 382 1
35 382 2
36 382 1
38 382 2
39 382 2
41 382 2
42 382 1
43 382 1
45 382 1
51 382 21
52 382 30
53 382 22
54 382 21
55 382 24
56 382 13
57 382 23
58 382 21
59 382 23
60 382 21
61 382 23
62 382 17
63 382 25
64 382 21
65 382 25
66 382 15
67 382 37
68 382 21
69 382 18
70 382 20
71 382 19
72 382 22
73 382 21
74 382 22
75 382 22
76 382 17
77 382 31
78 382 22
79 382 26
80 382 17
82 382 1
84 382 2
85 382 1
86 382 1
87 382 1
88 382 1
89 382 3
90 382 2
92 382 2
96 382 1
97 382 1
98 382 1
99 382 1
103 382 1
105 382 1
108 382 1
113 382 1
114 382 2
117 382 2
118 382 1
119 382 1
120 382 1
1 383 8
2 383 2
3 383 9
4 383 11
5 383 4
6 383 9
7 383 7
8 383 9
9 383 11
10 383 5
11 383 8
12 383 10
13 383 7
14 383 10
15 383 9
18 383 1
21 383 1
24 383 2
28 383 1
29 383 1
30 383 2
33 383 1
35 383 1
37 383 2
40 383 2
42 383 1
43 383 1
46 383 2
51 383 16
52 383 13
53 383 18
54 383 8
55 383 6
56 383 15
57 383 18
58 383 12
59 383 11
60 383 14
61 383 18
62 383 11
63 383 17
64 383 9
65 383 7
66 383 12
67 383 12
68 383 10
69 383 7
70 383 14
71 383 20
72 383 18
73 383 16
74 383 17
75 383 4
76 383 7
77 383 22
78 383 9
79 383 16
80 383 8
82 383 1
84 383 1
85 383 2
87 383 1
89 383 1
91 383 1
94 383 1
95 383 1
98 383 1
99 383 1
107 383 1
109 383 1
110 383 1
115 383 1
120 383 1
1 384 7
2 384 4
3 384 7
4 384 4
5 384 8
6 384 8
7 384 9
8 384 8
9 384 8
10 384 6
11 384 4
12 384 10
13 384 13
14 384 10
15 384 9
17 384 1
22 384 2
24 384 1
30 384 1
33 384 1
34 384 1
35 384 1
36 384 1
37 384 1
39 384 1
41 384 2
42 384 1
44 384 1
45 384 2
51 384 15
52 384 14
53 384 17
54 384 21
55 384 10
56 384 13
57 384 11
58 384 13
59 384 15
60 384 11
61 384 4
62 384 16
63 384 13
64 384 11
65 384 13
66 384 20
67 384 10
68 384 17
69 384 10
70 384 14
71 384 15
72 384 17
73 384 10
74 384 23
75 384 10
76 384 20
77 384 11
78 384 21
79 384 14
80 384 14
82 384 1
85 384 1
88 384 1
89 384 1
92 384 3
98 384 1
99 384 1
102 384 1
103 384 1
113 384 1
114 384 1
120 384 1
1 385 18
2 385 5
3 385 8
4 385 7
5 385 11
6 385 11
7 385 10
8 385 6
9 385 8
10 385 15
11 385 14
12 385 15
13 385 18
14 385 16
15 385 9
16 385 2
22 385 1
25 385 1
27 385 1
28 385 1
29 385 1
31 385 2
32 385 1
37 385 1
41 385 1
42 385 1
44 385 1
45 385 1
46 385 2
47 385 1
48 385 1
51 385 16
52 385 19
53 385 18
54 385 22
55 385 14
56 385 19
57 385 21
58 385 23
59 385 24
60 385 22
61 385 22
62 385 19
63 385 17
64 385 21
65 385 14
66 385 11
67 385 18
68 385 33
69 385 29
70 385 24
71 385 20
72 385 20
73 385 28
74 385 21
75 385 21
76 385 22
77 385 21
78 385 28
79 385 17
80 385 20
84 385 2
89 385 1
94 385 1
96 385 1
97 385 1
99 385 1
100 385 2
104 385 2
108 385 1
110 385 1
112 385 3
116 385 1
118 385 1
120 385 1
1 386 6
2 386 10
3 386 12
4 386 10
5 386 11
6 386 17
7 386 10
8 386 7
9 386 9
10 386 8
11 386 5
12 386 9
13 386 11
14 386 11
15 386 6
20 386 1
25 386 3
31 386 1
32 386 2
33 386 2
37 386 1
40 386 2
41 386 2
43 386 1
47 386 1
50 386 1
51 386 21
52 386 16
53 386 15
54 386 17
55 386 20
56 386 21
57 386 12
58 386 21
59 386 17
60 386 17
61 386 20
62 386 18
63 386 14
64 386 21
65 386 23
66 386 17
67 386 23
68 386 15
69 386 21
70 386 22
71 386 17
72 386 23
73 386 17
74 386 17
75 386 17
76 386 23
77 386 17
78 386 17
79 386 22
80 386 23
81 386 1
82 386 2
85 386 1
91 386 1
92 386 2
94 386 1
95 386 1
96 386 1
99 386 1
101 386 2
102 386 2
104 386 1
106 386 1
107 386 1
108 386 1
109 386 1
111 386 2
113 386 1
114 386 1
1 387 16
2 387 15
3 387 11
4 387 5
5 387 11
6 387 7
7 387 17
8 387 7
9 387 9
10 387 13
11 387 10
12 387 6
13 387 9
14 387 11
15 387 10
16 387 1
17 387 2
18 387 2
20 387 1
22 387 1
23 387 1
25 387 2
27 387 1
34 387 1
39 387 1
42 387 1
45 387 1
46 387 1
48 387 1
51 387 21
52 387 26
53 387 20
54 387 24
55 387 19
56 387 27
57 387 20
58 387 19
59 387 22
60 387 13
61 387 22
62 387 12
63 387 15
64 387 17
65 387 16
66 387 15
67 387 15
68 387 24
69 387 18
70 387 21
71 387 19
72 387 23
73 387 27
74 387 20
75 387 20
76 387 16
77 387 14
78 387 26
79 387 17
80 387 20
82 387 2
83 387 2
85 387 2
87 387 1
89 387 1
91 387 1
94 387 1
97 387 2
98 387 1
99 387 1
101 387 2
102 387 2
105 387 1
107 387 1
110 387 2
111 387 1
113 387 1
114 387 2
115 387 1
118 387 3
1 388 7
2 388 8
3 388 10
4 388 6
5 388 5
6 388 1
7 388 9
8 388 2
9 388 8
10 388 8
11 388 9
12 388 7
13 388 11
14 388 11
15 388 10
16 388 1
18 388 1
19 388 2
20 388 2
26 388 1
27 388 1
29 388 1
30 388 2
32 388 1
33 388 1
36 388 1
38 388 1
43 388 1
45 388 1
46 388 1
51 388 16
52 388 19
53 388 9
54 388 19
55 388 18
56 388 15
57 388 19
58 388 17
59 388 22
60 388 22
61 388 10
62 388 19
63 388 14
64 388 17
65 388 9
66 388 13
67 388 22
68 388 11
69 388 15
70 388 12
71 388 16
72 388 22
73 388 15
74 388 17
75 388 16
76 388 14
77 388 22
78 388 20
79 388 22
80 388 16
81 388 1
82 388 1
83 388 1
84 388 1
95 388 1
98 388 1
100 388 1
106 388 1
108 388 1
109 388 1
111 388 1
112 388 1
117 388 1
1 389 11
2 389 10
3 389 10
4 389 8
5 389 8
6 389 7
7 389 4
8 389 10
9 389 10
10 389 11
11 389 20
12 389 6
13 389 6
14 389 5
15 389 5
17 389 2
18 389 1
20 389 2
22 389 1
24 389 2
26 389 1
29 389 2
31 389 1
32 389 1
36 389 2
39 389 1
41 389 1
47 389 1
50 389 3
51 389 15
52 389 16
53 389 12
54 389 10
55 389 18
56 389 22
57 389 19
58 389 14
59 389 15
60 389 23
61 389 15
62 389 15
63 389 19
64 389 11
65 389 15
66 389 12
67 389 15
68 389 11
69 389 16
70 389 20
71 389 21
72 389 26
73 389 17
74 389 18
75 389 16
76 389 23
77 389 12
78 389 18
79 389 14
80 389 17
81 389 1
82 389 1
85 389 1
86 389 1
87 389 1
91 389 1
98 389 1
99 389 1
101 389 1
102 389 2
103 389 1
104 389 1
105 389 1
106 389 1
107 389 1
111 389 1
113 389 1
115 389 1
117 389 1
118 389 2
1 390 8
2 390 11
3 390 7
4 390 11
5 390 13
6 390 10
7 390 6
8 390 8
9 390 10
10 390 10
11 390 5
12 390 9
13 390 6
14 390 11
15 390 12
18 390 1
19 390 2
20 390 1
26 390 1
27 390 1
28 390 1
29 390 1
40 390 1
41 390 1
44 390 1
51 390 27
52 390 14
53 390 18
54 390 15
55 390 20
56 390 22
57 390 12
58 390 19
59 390 26
60 390 17
61 390 16
62 390 12
63 390 27
64 390 19
65 390 15
66 390 23
67 390 19
68 390 23
69 390 22
70 390 12
71 390 24
72 390 22
73 390 24
74 390 18
75 390 25
76 390 23
77 390 17
78 390 19
79 390 23
80 390 16
81 390 1
82 390 1
83 390 1
85 390 1
86 390 1
88 390 1
93 390 1
94 390 1
95 390 1
102 390 1
104 390 1
106 390 1
107 390 1
109 390 1
112 390 1
115 390 1
118 390 2
119 390 2
120 390 1
1 391 12
2 391 10
3 391 10
4 391 7
5 391 10
6 391 12
7 391 11
8 391 14
9 391 14
10 391 12
11 391 11
12 391 10
13 391 10
14 391 13
15 391 21
16 391 1
17 391 1
23 391 1
24 391 1
25 391 1
26 391 1
27 391 1
33 391 1
35 391 1
40 391 1
41 391 1
44 391 2
45 391 1
46 391 1
49 391 1
50 391 1
51 391 10
52 391 15
53 391 18
54 391 11
55 391 20
56 391 26
57 391 25
58 391 16
59 391 19
60 391 24
61 391 15
62 391 20
63 391 12
64 391 28
65 391 23
66 391 13
67 391 22
68 391 21
69 391 19
70 391 23
71 391 22
72 391 8
73 391 14
74 391 20
75 391 21
76 391 15
77 391 11
78 391 15
79 391 20
80 391 23
82 391 2
85 391 1
91 391 1
92 391 1
93 391 2
95 391 1
97 391 2
98 391 1
100 391 1
103 391 1
106 391 1
109 391 3
111 391 1
113 391 2
114 391 1
1 392 6
2 392 11
3 392 7
4 392 5
5 392 4
6 392 5
7 392 10
8 392 9
9 392 5
10 392 6
11 392 5
12 392 8
13 392 3
14 392 3
15 392 7
17 392 1
22 392 1
23 392 1
24 392 1
25 392 1
29 392 1
34 392 2
39 392 2
40 392 1
43 392 1
44 392 1
45 392 1
50 392 1
51 392 16
52 392 12
53 392 11
54 392 9
55 392 10
56 392 14
57 392 15
58 392 11
59 392 9
60 392 14
61 392 26
62 392 16
63 392 10
64 392 8
65 392 7
66 392 18
67 392 11
68 392 18
69 392 11
70 392 7
71 392 19
72 392 17
73 392 11
74 392 10
75 392 15
76 392 13
77 392 15
78 392 17
79 392 12
80 392 14
81 392 1
82 392 1
83 392 3
92 392 1
93 392 1
96 392 1
98 392 1
108 392 1
109 392 1
114 392 2
115 392 1
119 392 1
120 392 1
1 393 12
2 393 5
3 393 9
4 393 6
5 393 10
6 393 15
7 393 12
8 393 15
9 393 4
10 393 11
11 393 13
12 393 8
13 393 13
14 393 4
15 393 13
17 393 1
19 393 2
22 393 2
35 393 1
36 393 1
37 393 1
41 393 1
42 393 2
43 393 1
46 393 1
49 393 1
51 393 16
52 393 17
53 393 17
54 393 21
55 393 13
56 393 21
57 393 17
58 393 16
59 393 20
60 393 19
61 393 20
62 393 18
63 393 21
64 393 22
65 393 24
66 393 16
67 393 24
68 393 21
69 393 15
70 393 18
71 393 23
72 393 21
73 393 17
74 393 18
75 393 16
76 393 23
77 393 27
78 393 15
79 393 25
80 393 17
81 393 1
87 393 1
89 393 2
91 393 1
95 393 1
99 393 1
109 393 1
111 393 1
116 393 1
119 393 1
1 394 14
2 394 17
3 394 12
4 394 12
5 394 5
6 394 12
7 394 11
8 394 12
9 394 11
10 394 13
11 394 12
12 394 16
13 394 19
14 394 20
15 394 21
16 394 3
18 394 2
20 394 1
25 394 2
26 394 1
27 394 1
28 394 1
31 394 1
33 394 1
34 394 1
36 394 2
37 394 2
38 394 1
43 394 1
44 394 1
46 394 1
48 394 1
50 394 1
51 394 20
52 394 17
53 394 23
54 394 16
55 394 26
56 394 21
57 394 17
58 394 17
59 394 18
60 394 21
61 394 22
62 394 20
63 394 16
64 394 14
65 394 18
66 394 25
67 394 15
68 394 21
69 394 15
70 394 22
71 394 23
72 394 20
73 394 17
74 394 24
75 394 19
76 394 18
77 394 16
78 394 27
79 394 30
80 394 13
81 394 1
83 394 2
84 394 1
85 394 1
87 394 2
90 394 1
94 394 1
95 394 2
99 394 1
101 394 1
102 394 1
103 394 1
104 394 1
109 394 1
110 394 1
114 394 1
116 394 1
118 394 2
120 394 1
1 395 14
2 395 8
3 395 9
4 395 13
5 395 10
6 395 11
7 395 10
8 395 13
9 395 10
10 395 19
11 395 12
12 395 10
13 395 7
14 395 17
15 395 15
21 395 1
23 395 1
26 395 1
27 395 1
32 395 1
33 395 1
35 395 1
38 395 2
39 395 2
41 395 1
43 395 1
45 395 1
46 395 1
47 395 1
48 395 1
49 395 2
51 395 22
52 395 24
53 395 17
54 395 26
55 395 24
56 395 15
57 395 24
58 395 23
59 395 20
60 395 13
61 395 25
62 395 19
63 395 27
64 395 22
65 395 19
66 395 21
67 395 17
68 395 23
69 395 24
70 395 18
71 395 20
72 395 19
73 395 17
74 395 28
75 395 29
76 395 16
77 395 21
78 395 22
79 395 18
80 395 24
82 395 1
87 395 1
89 395 1
90 395 1
95 395 1
98 395 1
101 395 1
102 395 1
104 395 1
105 395 1
115 395 2
117 395 1
119 395 1
1 396 16
2 396 14
3 396 10
4 396 9
5 396 7
6 396 10
7 396 12
8 396 11
9 396 12
10 396 12
11 396 13
12 396 10
13 396 12
14 396 16
15 396 11
16 396 1
21 396 1
22 396 1
23 396 1
24 396 1
25 396 3
27 396 2
30 396 1
32 396 1
33 396 1
34 396 1
37 396 2
41 396 1
42 396 1
44 396 3
45 396 1
48 396 2
49 396 1
51 396 24
52 396 28
53 396 29
54 396 30
55 396 24
56 396 23
57 396 27
58 396 21
59 396 23
60 396 23
61 396 22
62 396 18
63 396 18
64 396 20
65 396 27
66 396 17
67 396 20
68 396 22
69 396 23
70 396 25
71 396 24
72 396 20
73 396 24
74 396 24
75 396 21
76 396 21
77 396 23
78 396 17
79 396 23
80 396 17
83 396 2
88 396 1
89 396 1
92 396 2
94 396 1
99 396 1
100 396 2
101 396 1
104 396 1
106 396 3
108 396 1
115 396 1
116 396 1
119 396 2
1 397 9
2 397 12
3 397 13
4 397 11
5 397 16
6 397 9
7 397 10
8 397 17
9 397 12
10 397 12
11 397 9
12 397 12
13 397 18
14 397 16
15 397 13
16 397 1
17 397 1
19 397 1
22 397 1
24 397 1
25 397 1
26 397 1
27 397 1
32 397 1
34 397 1
35 397 1
36 397 1
41 397 1
42 397 1
46 397 1
48 397 2
49 397 1
51 397 23
52 397 23
53 397 23
54 397 17
55 397 25
56 397 21
57 397 25
58 397 28
59 397 19
60 397 21
61 397 20
62 397 19
63 397 11
64 397 22
65 397 20
66 397 23
67 397 24
68 397 15
69 397 22
70 397 27
71 397 17
72 397 22
73 397 20
74 397 23
75 397 32
76 397 17
77 397 31
78 397 22
79 397 31
80 397 27
81 397 1
82 397 3
84 397 1
90 397 1
91 397 2
92 397 1
95 397 1
96 397 1
101 397 1
105 397 1
106 397 1
107 397 3
108 397 3
109 397 1
112 397 1
113 397 2
115 397 1
116 397 1
117 397 1
119 397 1
1 398 7
2 398 11
3 398 16
4 398 14
5 398 19
6 398 13
7 398 10
8 398 9
9 398 12
10 398 13
11 398 10
12 398 14
13 398 11
14 398 9
15 398 15
16 398 1
18 398 1
23 398 3
30 398 3
31 398 1
33 398 2
34 398 1
38 398 1
40 398 1
41 398 1
42 398 1
45 398 1
46 398 1
51 398 22
52 398 18
53 398 19
54 398 34
55 398 18
56 398 19
57 398 13
58 398 25
59 398 30
60 398 16
61 398 22
62 398 22
63 398 24
64 398 24
65 398 26
66 398 27
67 398 25
68 398 27
69 398 21
70 398 23
71 398 20
72 398 21
73 398 19
74 398 21
75 398 26
76 398 24
77 398 25
78 398 19
79 398 29
80 398 23
83 398 1
87 398 4
88 398 1
90 398 1
91 398 1
92 398 1
94 398 1
95 398 1
97 398 1
98 398 2
102 398 2
103 398 2
104 398 1
105 398 1
106 398 1
109 398 1
110 398 1
112 398 1
113 398 1
115 398 2
118 398 1
119 398 2
120 398 2
1 399 7
2 399 12
3 399 14
4 399 12
5 399 9
6 399 14
7 399 9
8 399 10
9 399 21
10 399 15
11 399 11
12 399 17
13 399 7
14 399 11
15 399 14
18 399 1
20 399 1
22 399 1
23 399 1
24 399 1
25 399 1
28 399 1
30 399 1
31 399 1
34 399 1
35 399 1
36 399 1
37 399 1
40 399 1
41 399 1
45 399 1
47 399 2
48 399 3
50 399 1
51 399 18
52 399 22
53 399 13
54 399 19
55 399 33
56 399 22
57 399 30
58 399 24
59 399 25
60 399 31
61 399 19
62 399 20
63 399 20
64 399 14
65 399 23
66 399 22
67 399 14
68 399 16
69 399 24
70 399 24
71 399 21
72 399 16
73 399 18
74 399 23
75 399 19
76 399 18
77 399 26
78 399 22
79 399 30
80 399 27
89 399 1
92 399 1
93 399 3
99 399 1
100 399 2
101 399 1
112 399 1
114 399 2
116 399 1
118 399 1
120 399 1
1 400 12
2 400 13
3 400 8
4 400 11
5 400 12
6 400 17
7 400 11
8 400 18
9 400 11
10 400 17
11 400 9
12 400 16
13 400 15
14 400 11
15 400 17
16 400 1
19 400 2
21 400 3
22 400 2
23 400 3
26 400 2
27 400 2
29 400 1
32 400 1
33 400 1
35 400 1
37 400 1
38 400 2
42 400 1
47 400 1
49 400 1
50 400 1
51 400 27
52 400 20
53 400 17
54 400 19
55 400 17
56 400 16
57 400 22
58 400 17
59 400 23
60 400 16
61 400 17
62 400 28
63 400 24
64 400 28
65 400 19
66 400 15
67 400 16
68 400 24
69 400 26
70 400 19
71 400 17
72 400 15
73 400 21
74 400 19
75 400 14
76 400 26
77 400 27
78 400 17
79 400 22
80 400 19
85 400 1
86 400 2
87 400 2
90 400 1
91 400 1
92 400 2
94 400 1
95 400 1
101 400 2
102 400 1
104 400 1
105 400 2
111 400 1
113 400 1
117 400 1
118 400 1
1 401 5
2 401 9
3 401 11
4 401 7
5 401 5
6 401 7
7 401 8
8 401 8
9 401 8
10 401 7
11 401 10
12 401 8
13 401 5
14 401 4
15 401 10
20 401 2
22 401 1
24 401 1
27 401 1
28 401 1
29 401 1
30 401 3
31 401 2
32 401 1
35 401 1
41 401 1
43 401 1
45 401 1
46 401 1
50 401 2
51 401 11
52 401 16
53 401 11
54 401 11
55 401 9
56 401 10
57 401 20
58 401 13
59 401 13
60 401 8
61 401 13
62 401 19
63 401 13
64 401 13
65 401 14
66 401 14
67 401 14
68 401 17
69 401 12
70 401 12
71 401 12
72 401 16
73 401 9
74 401 18
75 401 15
76 401 13
77 401 12
78 401 10
79 401 12
80 401 18
81 401 1
82 401 3
85 401 1
87 401 1
88 401 1
90 401 1
91 401 1
94 401 1
96 401 1
104 401 1
106 401 2
108 401 1
109 401 1
118 401 1
1 402 10
2 402 19
3 402 14
4 402 11
5 402 13
6 402 9
7 402 11
8 402 11
9 402 13
10 402 9
11 402 12
12 402 11
13 402 11
14 402 10
15 402 17
17 402 1
20 402 1
21 402 1
22 402 1
24 402 2
25 402 1
28 402 1
29 402 2
31 402 1
35 402 1
38 402 1
44 402 1
45 402 1
47 402 1
48 402 1
50 402 1
51 402 18
52 402 21
53 402 20
54 402 26
55 402 19
56 402 23
57 402 26
58 402 18
59 402 22
60 402 21
61 402 23
62 402 15
63 402 21
64 402 27
65 402 18
66 402 34
67 402 24
68 402 19
69 402 18
70 402 28
71 402 24
72 402 13
73 402 18
74 402 27
75 402 29
76 402 24
77 402 23
78 402 21
79 402 13
80 402 21
81 402 1
82 402 1
83 402 1
84 402 1
86 402 1
88 402 1
89 402 1
91 402 1
92 402 1
96 402 2
98 402 2
101 402 1
102 402 1
104 402 4
107 402 1
108 402 2
112 402 1
117 402 1
120 402 1
1 403 7
2 403 15
3 403 11
4 403 12
5 403 18
6 403 18
7 403 17
8 403 5
9 403 23
10 403 12
11 403 7
12 403 13
13 403 10
14 403 6
15 403 14
20 403 1
23 403 1
28 403 3
29 403 1
32 403 1
33 403 1
34 403 2
36 403 1
37 403 1
38 403 1
42 403 1
45 403 1
49 403 2
51 403 18
52 403 21
53 403 27
54 403 22
55 403 28
56 403 31
57 403 29
58 403 26
59 403 15
60 403 24
61 403 23
62 403 18
63 403 15
64 403 26
65 403 26
66 403 19
67 403 29
68 403 20
69 403 18
70 403 25
71 403 21
72 403 17
73 403 15
74 403 25
75 403 22
76 403 16
77 403 20
78 403 15
79 403 29
80 403 30
87 403 2
88 403 1
89 403 1
90 403 1
91 403 1
92 403 1
93 403 1
94 403 1
96 403 2
99 403 1
101 403 1
102 403 1
104 403 1
105 403 1
108 403 1
109 403 1
112 403 1
113 403 2
114 403 1
115 403 1
117 403 1
1 404 12
2 404 5
3 404 11
4 404 14
5 404 11
6 404 6
7 404 5
8 404 15
9 404 13
10 404 9
11 404 8
12 404 8
13 404 14
14 404 6
15 404 6
19 404 2
23 404 1
33 404 1
34 404 1
35 404 1
36 404 1
39 404 1
44 404 1
45 404 1
50 404 3
51 404 8
52 404 11
53 404 11
54 404 15
55 404 19
56 404 12
57 404 15
58 404 12
59 404 12
60 404 19
61 404 18
62 404 15
63 404 19
64 404 8
65 404 18
66 404 9
67 404 19
68 404 19
69 404 12
70 404 6
71 404 14
72 404 14
73 404 10
74 404 9
75 404 13
76 404 14
77 404 13
78 404 15
79 404 11
80 404 10
81 404 1
83 404 1
84 404 1
85 404 2
86 404 1
87 404 1
90 404 2
96 404 1
99 404 1
102 404 1
109 404 1
113 404 1
114 404 1
115 404 1
116 404 2
118 404 1
119 404 1
1 405 11
2 405 14
3 405 7
4 405 16
5 405 14
6 405 10
7 405 6
8 405 8
9 405 16
10 405 12
11 405 9
12 405 18
13 405 10
14 405 11
15 405 9
17 405 1
18 405 1
19 405 1
20 405 1
21 405 1
23 405 1
25 405 1
27 405 1
29 405 1
30 405 1
32 405 3
33 405 1
36 405 2
38 405 1
45 405 1
51 405 21
52 405 19
53 405 20
54 405 23
55 405 16
56 405 21
57 405 18
58 405 19
59 405 14
60 405 27
61 405 16
62 405 19
63 405 22
64 405 25
65 405 19
66 405 25
67 405 27
68 405 22
69 405 25
70 405 24
71 405 23
72 405 21
73 405 21
74 405 18
75 405 26
76 405 20
77 405 22
78 405 16
79 405 23
80 405 24
81 405 1
82 405 1
83 405 1
86 405 2
88 405 1
92 405 1
95 405 1
98 405 2
100 405 1
101 405 1
107 405 1
110 405 1
112 405 1
114 405 1
1 406 12
2 406 16
3 406 11
4 406 11
5 406 15
6 406 12
7 406 10
8 406 11
9 406 13
10 406 11
11 406 12
12 406 11
13 406 11
14 406 12
15 406 11
21 406 1
24 406 1
28 406 3
29 406 1
30 406 1
39 406 1
40 406 1
41 406 2
48 406 1
50 406 1
51 406 18
52 406 21
53 406 23
54 406 27
55 406 30
56 406 21
57 406 25
58 406 26
59 406 26
60 406 18
61 406 23
62 406 24
63 406 26
64 406 16
65 406 21
66 406 22
67 406 24
68 406 25
69 406 20
70 406 22
71 406 23
72 406 23
73 406 19
74 406 19
75 406 26
76 406 26
77 406 27
78 406 15
79 406 22
80 406 27
81 406 2
83 406 1
84 406 2
85 406 3
86 406 2
90 406 1
91 406 1
93 406 1
95 406 2
96 406 1
98 406 1
99 406 1
100 406 1
102 406 1
103 406 1
115 406 1
120 406 1
1 407 10
2 407 13
3 407 7
4 407 6
5 407 6
6 407 8
7 407 14
8 407 8
9 407 10
10 407 4
11 407 12
12 407 13
13 407 21
14 407 19
15 407 11
17 407 1
23 407 1
24 407 1
26 407 1
27 407 1
29 407 1
30 407 2
32 407 1
34 407 1
36 407 1
40 407 2
41 407 1
44 407 1
45 407 1
46 407 1
48 407 1
49 407 1
50 407 1
51 407 23
52 407 15
53 407 18
54 407 17
55 407 19
56 407 17
57 407 22
58 407 13
59 407 17
60 407 21
61 407 23
62 407 17
63 407 22
64 407 15
65 407 19
66 407 22
67 407 19
68 407 19
69 407 20
70 407 21
71 407 25
72 407 18
73 407 29
74 407 22
75 407 24
76 407 16
77 407 23
78 407 21
79 407 25
80 407 16
83 407 1
84 407 1
85 407 1
88 407 1
89 407 1
91 407 1
92 407 2
93 407 1
94 407 1
96 407 1
97 407 1
100 407 2
107 407 2
108 407 2
114 407 2
117 407 2
120 407 1
1 408 9
2 408 15
3 408 12
4 408 18
5 408 16
6 408 17
7 408 11
8 408 11
9 408 12
10 408 14
11 408 12
12 408 10
13 408 9
14 408 13
15 408 17
16 408 1
17 408 1
18 408 1
21 408 1
22 408 1
27 408 1
30 408 1
31 408 1
36 408 3
37 408 1
38 408 3
40 408 1
41 408 2
45 408 1
46 408 1
47 408 2
48 408 1
51 408 25
52 408 20
53 408 27
54 408 26
55 408 21
56 408 19
57 408 21
58 408 13
59 408 29
60 408 24
61 408 17
62 408 19
63 408 21
64 408 25
65 408 18
66 408 24
67 408 30
68 408 23
69 408 22
70 408 23
71 408 19
72 408 21
73 408 24
74 408 20
75 408 13
76 408 28
77 408 21
78 408 15
79 408 26
80 408 30
81 408 2
82 408 2
83 408 1
88 408 1
89 408 1
90 408 1
91 408 1
93 408 1
97 408 1
98 408 1
100 408 1
101 408 1
105 408 1
108 408 1
113 408 1
119 408 1
1 409 10
2 409 7
3 409 14
4 409 10
5 409 8
6 409 4
7 409 6
8 409 5
9 409 8
10 409 17
11 409 12
12 409 8
13 409 14
14 409 14
15 409 7
21 409 1
22 409 1
23 409 1
30 409 2
31 409 1
32 409 1
34 409 1
35 409 1
40 409 1
42 409 1
44 409 1
49 409 1
51 409 29
52 409 17
53 409 16
54 409 25
55 409 16
56 409 23
57 409 17
58 409 16
59 409 18
60 409 20
61 409 26
62 409 18
63 409 20
64 409 19
65 409 13
66 409 23
67 409 17
68 409 17
69 409 20
70 409 11
71 409 24
72 409 21
73 409 22
74 409 23
75 409 16
76 409 16
77 409 16
78 409 14
79 409 27
80 409 19
87 409 1
88 409 1
89 409 1
93 409 1
95 409 1
96 409 2
97 409 1
99 409 2
101 409 1
106 409 2
116 409 1
117 409 1
119 409 2
120 409 1
1 410 8
2 410 9
3 410 11
4 410 18
5 410 6
6 410 10
7 410 8
8 410 8
9 410 10
10 410 13
11 410 8
12 410 8
13 410 13
14 410 5
15 410 15
20 410 1
22 410 1
26 410 2
28 410 1
30 410 1
32 410 1
36 410 1
38 410 1
45 410 1
46 410 1
47 410 1
49 410 1
51 410 23
52 410 11
53 410 26
54 410 22
55 410 13
56 410 20
57 410 18
58 410 23
59 410 15
60 410 14
61 410 17
62 410 20
63 410 19
64 410 18
65 410 20
66 410 13
67 410 14
68 410 20
69 410 20
70 410 16
71 410 18
72 410 20
73 410 27
74 410 22
75 410 17
76 410 14
77 410 15
78 410 18
79 410 29
80 410 19
81 410 2
82 410 1
84 410 1
85 410 1
88 410 1
94 410 1
95 410 1
98 410 1
100 410 1
103 410 1
104 410 1
107 410 1
108 410 1
109 410 1
110 410 1
111 410 1
115 410 1
118 410 1
119 410 3
120 410 2
1 411 9
2 411 14
3 411 12
4 411 13
5 411 6
6 411 12
7 411 17
8 411 9
9 411 6
10 411 10
11 411 15
12 411 11
13 411 11
14 411 9
15 411 16
16 411 1
17 411 1
19 411 1
20 411 1
26 411 1
27 411 1
28 411 2
30 411 1
31 411 1
34 411 1
35 411 2
40 411 2
41 411 1
42 411 1
50 411 2
51 411 23
52 411 23
53 411 17
54 411 16
55 411 21
56 411 17
57 411 19
58 411 16
59 411 22
60 411 30
61 411 29
62 411 17
63 411 21
64 411 14
65 411 15
66 411 16
67 411 14
68 411 13
69 411 17
70 411 20
71 411 17
72 411 17
73 411 11
74 411 13
75 411 20
76 411 19
77 411 22
78 411 14
79 411 21
80 411 19
82 411 1
86 411 1
88 411 1
91 411 3
92 411 1
95 411 1
101 411 1
103 411 1
109 411 1
110 411 1
112 411 1
113 411 1
114 411 2
119 411 1
1 412 11
2 412 11
3 412 8
4 412 18
5 412 10
6 412 16
7 412 6
8 412 13
9 412 15
10 412 12
11 412 14
12 412 12
13 412 17
14 412 14
15 412 11
17 412 1
21 412 2
22 412 1
24 412 1
25 412 3
26 412 1
28 412 1
30 412 2
32 412 1
33 412 2
34 412 1
36 412 2
43 412 1
50 412 1
51 412 21
52 412 29
53 412 14
54 412 16
55 412 18
56 412 31
57 412 25
58 412 20
59 412 20
60 412 30
61 412 26
62 412 23
63 412 21
64 412 14
65 412 16
66 412 17
67 412 18
68 412 21
69 412 25
70 412 27
71 412 19
72 412 28
73 412 29
74 412 19
75 412 23
76 412 20
77 412 20
78 412 23
79 412 29
80 412 24
82 412 2
83 412 1
84 412 1
85 412 1
88 412 2
89 412 1
93 412 2
94 412 1
101 412 1
102 412 1
103 412 2
107 412 1
111 412 2
113 412 4
114 412 1
116 412 2
1 413 18
2 413 8
3 413 16
4 413 20
5 413 10
6 413 10
7 413 5
8 413 10
9 413 12
10 413 8
11 413 19
12 413 8
13 413 9
14 413 15
15 413 10
16 413 1
17 413 1
20 413 1
24 413 1
25 413 1
26 413 3
27 413 3
28 413 1
29 413 2
30 413 1
31 413 1
32 413 1
36 413 2
39 413 1
43 413 1
44 413 1
47 413 1
49 413 1
50 413 1
51 413 17
52 413 27
53 413 20
54 413 27
55 413 21
56 413 22
57 413 23
58 413 13
59 413 21
60 413 22
61 413 28
62 413 22
63 413 17
64 413 28
65 413 32
66 413 30
67 413 30
68 413 26
69 413 22
70 413 18
71 413 19
72 413 15
73 413 26
74 413 32
75 413 29
76 413 18
77 413 21
78 413 15
79 413 21
80 413 21
83 413 2
86 413 3
87 413 1
88 413 1
90 413 1
91 413 1
92 413 2
93 413 1
96 413 1
97 413 2
99 413 1
101 413 1
106 413 2
108 413 1
118 413 1
120 413 2
1 414 10
2 414 7
3 414 2
4 414 5
5 414 5
6 414 3
7 414 9
8 414 7
9 414 6
10 414 11
11 414 9
12 414 13
13 414 7
14 414 9
15 414 11
17 414 1
20 414 1
29 414 2
31 414 1
33 414 1
35 414 1
38 414 1
39 414 1
42 414 2
46 414 1
50 414 1
51 414 14
52 414 14
53 414 8
54 414 17
55 414 14
56 414 6
57 414 13
58 414 10
59 414 16
60 414 13
61 414 11
62 414 14
63 414 17
64 414 9
65 414 16
66 414 11
67 414 13
68 414 17
69 414 21
70 414 10
71 414 10
72 414 13
73 414 10
74 414 15
75 414 13
76 414 8
77 414 11
78 414 12
79 414 12
80 414 15
89 414 1
91 414 1
93 414 1
94 414 1
97 414 1
99 414 1
103 414 1
106 414 1
107 414 1
114 414 1
116 414 1
117 414 3
120 414 1
1 415 7
2 415 10
3 415 11
4 415 10
5 415 11
6 415 5
7 415 11
8 415 9
9 415 8
10 415 9
11 415 8
12 415 14
13 415 10
14 415 7
15 415 8
16 415 1
18 415 1
27 415 1
28 415 1
32 415 1
37 415 2
43 415 1
44 415 1
51 415 16
52 415 22
53 415 19
54 415 10
55 415 24
56 415 17
57 415 20
58 415 21
59 415 19
60 415 22
61 415 19
62 415 19
63 415 26
64 415 14
65 415 15
66 415 19
67 415 16
68 415 13
69 415 19
70 415 23
71 415 16
72 415 15
73 415 19
74 415 15
75 415 22
76 415 27
77 415 15
78 415 19
79 415 17
80 415 19
81 415 1
84 415 1
85 415 1
86 415 1
87 415 1
89 415 1
91 415 2
92 415 2
97 415 1
99 415 2
100 415 1
109 415 1
110 415 1
113 415 1
117 415 1
1 416 15
2 416 11
3 416 10
4 416 14
5 416 4
6 416 13
7 416 13
8 416 8
9 416 8
10 416 8
11 416 14
12 416 10
13 416 4
14 416 13
15 416 13
16 416 1
19 416 2
20 416 1
21 416 2
23 416 2
25 416 1
27 416 1
31 416 1
36 416 1
38 416 2
41 416 1
43 416 1
47 416 1
48 416 2
49 416 2
50 416 3
51 416 17
52 416 13
53 416 28
54 416 18
55 416 17
56 416 20
57 416 20
58 416 15
59 416 16
60 416 16
61 416 23
62 416 23
63 416 21
64 416 21
65 416 23
66 416 16
67 416 23
68 416 28
69 416 16
70 416 16
71 416 15
72 416 15
73 416 22
74 416 20
75 416 24
76 416 15
77 416 25
78 416 18
79 416 26
80 416 21
87 416 1
91 416 1
95 416 1
98 416 1
100 416 1
102 416 1
106 416 3
107 416 2
108 416 1
109 416 1
110 416 2
112 416 1
118 416 1
119 416 2
120 416 1
1 417 10
2 417 10
3 417 13
4 417 14
5 417 17
6 417 13
7 417 8
8 417 7
9 417 10
10 417 16
11 417 7
12 417 15
13 417 13
14 417 17
15 417 7
16 417 3
19 417 1
20 417 1
22 417 2
28 417 3
29 417 2
30 417 1
31 417 1
32 417 1
35 417 1
39 417 1
41 417 1
45 417 1
46 417 1
47 417 1
48 417 1
49 417 1
51 417 22
52 417 20
53 417 17
54 417 27
55 417 20
56 417 22
57 417 25
58 417 24
59 417 10
60 417 14
61 417 25
62 417 24
63 417 22
64 417 17
65 417 11
66 417 22
67 417 30
68 417 18
69 417 20
70 417 19
71 417 24
72 417 23
73 417 21
74 417 21
75 417 25
76 417 20
77 417 29
78 417 15
79 417 29
80 417 25
82 417 2
85 417 2
86 417 2
87 417 2
89 417 3
91 417 1
97 417 1
100 417 1
101 417 1
110 417 2
113 417 2
115 417 1
119 417 2
120 417 1
1 418 7
2 418 9
3 418 11
4 418 10
5 418 6
6 418 7
7 418 12
8 418 4
9 418 6
10 418 6
11 418 10
12 418 4
13 418 12
14 418 13
15 418 16
29 418 1
30 418 1
34 418 2
35 418 1
43 418 1
49 418 1
50 418 1
51 418 17
52 418 15
53 418 9
54 418 9
55 418 10
56 418 12
57 418 13
58 418 14
59 418 16
60 418 14
61 418 12
62 418 6
63 418 13
64 418 12
65 418 18
66 418 13
67 418 17
68 418 11
69 418 14
70 418 17
71 418 5
72 418 16
73 418 15
74 418 15
75 418 13
76 418 15
77 418 8
78 418 9
79 418 13
80 418 20
83 418 1
87 418 1
91 418 2
94 418 1
98 418 1
99 418 1
107 418 1
108 418 2
109 418 1
111 418 1
116 418 3
120 418 1
1 419 17
2 419 8
3 419 26
4 419 8
5 419 12
6 419 8
7 419 15
8 419 14
9 419 12
10 419 12
11 419 18
12 419 10
13 419 14
14 419 6
15 419 10
16 419 1
18 419 2
21 419 1
27 419 3
28 419 1
29 419 1
30 419 1
31 419 1
32 419 1
33 419 1
34 419 1
36 419 1
37 419 1
41 419 1
42 419 1
49 419 1
50 419 1
51 419 24
52 419 20
53 419 27
54 419 22
55 419 20
56 419 27
57 419 21
58 419 27
59 419 29
60 419 22
61 419 18
62 419 27
63 419 19
64 419 19
65 419 20
66 419 26
67 419 20
68 419 16
69 419 23
70 419 17
71 419 27
72 419 18
73 419 22
74 419 18
75 419 19
76 419 25
77 419 22
78 419 21
79 419 8
80 419 24
81 419 1
85 419 1
87 419 1
88 419 1
89 419 1
92 419 1
94 419 1
99 419 2
102 419 1
103 419 2
105 419 1
106 419 3
107 419 1
109 419 1
112 419 1
116 419 1
118 419 1
119 419 3
1 420 9
2 420 13
3 420 13
4 420 11
5 420 13
6 420 13
7 420 13
8 420 11
9 420 7
10 420 12
11 420 19
12 420 13
13 420 15
14 420 11
15 420 15
16 420 1
17 420 2
24 420 1
26 420 1
33 420 1
34 420 1
35 420 2
38 420 2
41 420 1
47 420 1
51 420 24
52 420 19
53 420 23
54 420 16
55 420 21
56 420 11
57 420 21
58 420 26
59 420 18
60 420 26
61 420 20
62 420 22
63 420 27
64 420 25
65 420 27
66 420 21
67 420 21
68 420 25
69 420 23
70 420 28
71 420 24
72 420 20
73 420 27
74 420 24
75 420 23
76 420 21
77 420 22
78 420 25
79 420 21
80 420 26
83 420 1
84 420 2
85 420 2
86 420 1
87 420 3
88 420 1
90 420 1
92 420 1
93 420 1
94 420 1
95 420 1
96 420 2
99 420 1
101 420 1
103 420 2
104 420 3
105 420 1
107 420 1
108 420 3
109 420 2
111 420 3
114 420 1
117 420 2
119 420 2
120 420 1
1 421 11
2 421 8
3 421 7
4 421 11
5 421 9
6 421 12
7 421 10
8 421 6
9 421 14
10 421 8
11 421 9
12 421 4
13 421 7
14 421 9
15 421 14
18 421 1
28 421 1
35 421 1
36 421 1
38 421 1
42 421 1
43 421 1
46 421 1
51 421 22
52 421 15
53 421 15
54 421 9
55 421 18
56 421 17
57 421 18
58 421 18
59 421 11
60 421 18
61 421 22
62 421 10
63 421 15
64 421 14
65 421 16
66 421 15
67 421 16
68 421 16
69 421 9
70 421 15
71 421 24
72 421 15
73 421 18
74 421 26
75 421 20
76 421 17
77 421 16
78 421 19
79 421 7
80 421 15
82 421 2
83 421 1
92 421 1
93 421 1
96 421 2
107 421 2
108 421 2
110 421 1
111 421 1
113 421 1
114 421 1
115 421 1
119 421 1
1 422 14
2 422 9
3 422 5
4 422 9
5 422 10
6 422 11
7 422 15
8 422 7
9 422 10
10 422 10
11 422 14
12 422 10
13 422 14
14 422 13
15 422 7
17 422 1
18 422 1
19 422 3
22 422 1
23 422 3
26 422 1
34 422 2
35 422 1
36 422 1
37 422 1
39 422 1
40 422 1
41 422 1
42 422 1
44 422 1
46 422 1
49 422 1
51 422 19
52 422 24
53 422 11
54 422 15
55 422 29
56 422 20
57 422 22
58 422 14
59 422 17
60 422 14
61 422 28
62 422 25
63 422 24
64 422 26
65 422 24
66 422 19
67 422 18
68 422 18
69 422 24
70 422 20
71 422 31
72 422 28
73 422 21
74 422 15
75 422 19
76 422 20
77 422 28
78 422 22
79 422 21
80 422 18
81 422 1
85 422 2
87 422 1
88 422 2
89 422 1
91 422 1
93 422 2
98 422 2
104 422 1
105 422 1
108 422 1
112 422 1
114 422 3
1 423 9
2 423 5
3 423 11
4 423 4
5 423 11
6 423 8
7 423 6
8 423 8
9 423 4
10 423 6
11 423 12
12 423 5
13 423 7
14 423 5
15 423 8
18 423 1
19 423 1
23 423 1
29 423 1
35 423 1
42 423 1
44 423 1
45 423 2
46 423 1
49 423 1
51 423 13
52 423 9
53 423 12
54 423 15
55 423 19
56 423 11
57 423 15
58 423 22
59 423 13
60 423 15
61 423 10
62 423 9
63 423 16
64 423 8
65 423 11
66 423 15
67 423 19
68 423 16
69 423 11
70 423 16
71 423 12
72 423 15
73 423 12
74 423 14
75 423 14
76 423 25
77 423 9
78 423 9
79 423 14
80 423 12
82 423 1
87 423 1
88 423 1
89 423 1
94 423 1
99 423 1
100 423 2
103 423 1
106 423 1
107 423 1
112 423 1
1 424 11
2 424 12
3 424 7
4 424 10
5 424 6
6 424 8
7 424 6
8 424 11
9 424 3
10 424 13
11 424 13
12 424 6
13 424 8
14 424 10
15 424 7
16 424 1
23 424 1
24 424 1
33 424 1
37 424 1
38 424 1
39 424 1
40 424 1
42 424 1
43 424 2
44 424 3
46 424 1
47 424 1
49 424 1
50 424 1
51 424 18
52 424 23
53 424 18
54 424 21
55 424 22
56 424 13
57 424 27
58 424 13
59 424 12
60 424 20
61 424 13
62 424 32
63 424 15
64 424 18
65 424 15
66 424 16
67 424 15
68 424 14
69 424 16
70 424 21
71 424 12
72 424 21
73 424 12
74 424 10
75 424 18
76 424 11
77 424 16
78 424 17
79 424 17
80 424 17
81 424 1
82 424 1
84 424 1
85 424 3
87 424 1
91 424 1
92 424 2
97 424 1
98 424 1
99 424 1
112 424 1
116 424 2
118 424 2
119 424 1
1 425 11
2 425 9
3 425 12
4 425 7
5 425 6
6 425 5
7 425 4
8 425 8
9 425 16
10 425 12
11 425 17
12 425 7
13 425 5
14 425 6
15 425 11
22 425 1
24 425 1
28 425 2
33 425 1
36 425 1
39 425 1
40 425 1
44 425 1
51 425 21
52 425 16
53 425 11
54 425 21
55 425 16
56 425 11
57 425 24
58 425 13
59 425 19
60 425 19
61 425 14
62 425 23
63 425 20
64 425 11
65 425 17
66 425 21
67 425 22
68 425 17
69 425 3
70 425 15
71 425 17
72 425 13
73 425 20
74 425 14
75 425 14
76 425 18
77 425 17
78 425 11
79 425 23
80 425 20
86 425 1
87 425 1
90 425 2
91 425 1
94 425 1
98 425 1
99 425 1
106 425 1
107 425 1
112 425 1
114 425 1
115 425 1
116 425 1
117 425 3
118 425 2
119 425 2
1 426 7
2 426 9
3 426 15
4 426 12
5 426 9
6 426 4
7 426 12
8 426 9
9 426 8
10 426 7
11 426 7
12 426 6
13 426 6
14 426 3
15 426 10
18 426 1
19 426 1
22 426 1
25 426 1
27 426 1
28 426 1
29 426 1
31 426 1
38 426 1
49 426 1
51 426 18
52 426 24
53 426 17
54 426 16
55 426 18
56 426 13
57 426 17
58 426 17
59 426 17
60 426 18
61 426 18
62 426 19
63 426 11
64 426 19
65 426 15
66 426 15
67 426 23
68 426 17
69 426 22
70 426 18
71 426 13
72 426 13
73 426 6
74 426 15
75 426 17
76 426 13
77 426 18
78 426 21
79 426 20
80 426 19
81 426 1
82 426 2
84 426 1
85 426 1
86 426 1
87 426 1
93 426 2
97 426 1
98 426 2
99 426 1
101 426 1
105 426 1
114 426 1
117 426 1
119 426 1
120 426 1
1 427 6
2 427 7
3 427 8
4 427 5
5 427 8
6 427 11
7 427 10
8 427 11
9 427 5
10 427 10
11 427 7
12 427 5
13 427 3
14 427 4
15 427 8
17 427 1
20 427 1
25 427 1
29 427 1
30 427 1
32 427 1
35 427 1
39 427 1
40 427 1
41 427 1
43 427 1
45 427 1
50 427 1
51 427 8
52 427 14
53 427 22
54 427 10
55 427 17
56 427 13
57 427 12
58 427 19
59 427 16
60 427 17
61 427 19
62 427 14
63 427 20
64 427 14
65 427 8
66 427 9
67 427 4
68 427 13
69 427 12
70 427 12
71 427 15
72 427 9
73 427 14
74 427 15
75 427 12
76 427 7
77 427 16
78 427 20
79 427 11
80 427 19
84 427 1
87 427 2
88 427 1
95 427 1
98 427 2
104 427 2
106 427 2
107 427 1
110 427 1
117 427 1
1 428 10
2 428 12
3 428 14
4 428 15
5 428 12
6 428 10
7 428 10
8 428 8
9 428 8
10 428 8
11 428 10
12 428 12
13 428 8
14 428 12
15 428 10
20 428 1
21 428 1
28 428 1
33 428 2
36 428 2
43 428 2
44 428 2
45 428 1
46 428 1
49 428 1
51 428 19
52 428 19
53 428 20
54 428 22
55 428 16
56 428 19
57 428 26
58 428 26
59 428 16
60 428 16
61 428 21
62 428 20
63 428 23
64 428 12
65 428 24
66 428 23
67 428 20
68 428 22
69 428 31
70 428 12
71 428 23
72 428 16
73 428 11
74 428 24
75 428 25
76 428 25
77 428 24
78 428 28
79 428 16
80 428 17
84 428 2
85 428 1
88 428 1
91 428 2
95 428 1
97 428 3
98 428 1
99 428 1
101 428 1
105 428 2
109 428 1
113 428 1
115 428 4
118 428 1
119 428 1
1 429 10
2 429 11
3 429 8
4 429 7
5 429 15
6 429 4
7 429 17
8 429 13
9 429 7
10 429 7
11 429 7
12 429 13
13 429 15
14 429 6
15 429 5
22 429 2
27 429 2
30 429 2
34 429 1
39 429 1
40 429 1
41 429 1
42 429 1
45 429 1
46 429 1
48 429 1
49 429 2
50 429 1
51 429 25
52 429 18
53 429 20
54 429 25
55 429 18
56 429 21
57 429 21
58 429 23
59 429 14
60 429 23
61 429 19
62 429 19
63 429 17
64 429 13
65 429 18
66 429 18
67 429 27
68 429 18
69 429 17
70 429 24
71 429 19
72 429 15
73 429 22
74 429 16
75 429 14
76 429 16
77 429 22
78 429 24
79 429 23
80 429 18
82 429 1
84 429 2
88 429 1
89 429 1
90 429 1
92 429 1
95 429 1
96 429 2
103 429 1
106 429 1
108 429 1
110 429 1
111 429 1
113 429 1
115 429 3
116 429 2
119 429 1
120 429 1
1 430 12
2 430 9
3 430 9
4 430 11
5 430 14
6 430 5
7 430 10
8 430 10
9 430 15
10 430 17
11 430 13
12 430 6
13 430 12
14 430 10
15 430 16
17 430 1
21 430 2
23 430 1
26 430 1
29 430 1
31 430 1
32 430 3
33 430 1
34 430 2
35 430 1
36 430 2
38 430 1
39 430 1
41 430 1
43 430 1
45 430 1
48 430 1
49 430 1
51 430 25
52 430 35
53 430 28
54 430 30
55 430 19
56 430 31
57 430 24
58 430 25
59 430 11
60 430 25
61 430 17
62 430 21
63 430 30
64 430 19
65 430 16
66 430 16
67 430 12
68 430 21
69 430 22
70 430 27
71 430 24
72 430 32
73 430 21
74 430 21
75 430 26
76 430 23
77 430 25
78 430 16
79 430 20
80 430 25
81 430 1
87 430 2
88 430 2
92 430 1
96 430 1
97 430 2
99 430 2
100 430 1
101 430 1
102 430 2
103 430 1
105 430 1
107 430 1
109 430 1
110 430 1
111 430 1
112 430 1
113 430 1
116 430 1
117 430 2
118 430 4
119 430 1
1 431 13
2 431 19
3 431 15
4 431 16
5 431 12
6 431 14
7 431 13
8 431 16
9 431 11
10 431 14
11 431 6
12 431 7
13 431 11
14 431 6
15 431 13
17 431 2
18 431 1
22 431 1
25 431 1
26 431 1
27 431 2
28 431 1
29 431 2
35 431 2
39 431 1
40 431 2
42 431 1
44 431 2
45 431 2
46 431 1
47 431 1
48 431 4
51 431 20
52 431 20
53 431 25
54 431 14
55 431 28
56 431 24
57 431 12
58 431 15
59 431 32
60 431 25
61 431 19
62 431 25
63 431 26
64 431 11
65 431 27
66 431 28
67 431 21
68 431 24
69 431 20
70 431 20
71 431 26
72 431 13
73 431 23
74 431 19
75 431 24
76 431 14
77 431 20
78 431 21
79 431 21
80 431 21
81 431 4
82 431 1
85 431 1
87 431 1
88 431 2
89 431 1
90 431 1
94 431 1
95 431 2
102 431 1
104 431 1
108 431 1
109 431 1
111 431 1
112 431 2
116 431 1
117 431 1
1 432 7
2 432 11
3 432 8
4 432 8
5 432 14
6 432 13
7 432 8
8 432 12
9 432 11
10 432 11
11 432 8
12 432 5
13 432 13
14 432 17
15 432 12
17 432 1
18 432 1
21 432 1
24 432 1
31 432 1
32 432 2
34 432 1
46 432 1
49 432 1
51 432 17
52 432 25
53 432 26
54 432 15
55 432 29
56 432 21
57 432 20
58 432 18
59 432 18
60 432 12
61 432 17
62 432 22
63 432 14
64 432 20
65 432 13
66 432 15
67 432 12
68 432 24
69 432 23
70 432 11
71 432 22
72 432 28
73 432 22
74 432 17
75 432 17
76 432 12
77 432 22
78 432 14
79 432 19
80 432 14
82 432 1
87 432 1
91 432 1
94 432 1
97 432 1
98 432 1
99 432 2
104 432 2
107 432 1
110 432 1
117 432 1
119 432 1
1 433 9
2 433 6
3 433 9
4 433 8
5 433 8
6 433 7
7 433 11
8 433 12
9 433 11
10 433 14
11 433 8
12 433 10
13 433 15
14 433 8
15 433 8
18 433 1
21 433 1
23 433 2
25 433 1
28 433 2
31 433 1
34 433 2
38 433 1
51 433 15
52 433 18
53 433 13
54 433 20
55 433 14
56 433 13
57 433 20
58 433 13
59 433 19
60 433 11
61 433 19
62 433 15
63 433 15
64 433 15
65 433 15
66 433 19
67 433 15
68 433 16
69 433 19
70 433 16
71 433 12
72 433 11
73 433 15
74 433 13
75 433 13
76 433 17
77 433 16
78 433 10
79 433 16
80 433 14
84 433 2
89 433 1
90 433 1
100 433 1
103 433 1
107 433 1
108 433 2
109 433 1
110 433 1
111 433 1
113 433 1
115 433 1
117 433 1
1 434 7
2 434 8
3 434 4
4 434 8
5 434 10
6 434 10
7 434 9
8 434 7
9 434 8
10 434 5
11 434 11
12 434 10
13 434 7
14 434 13
15 434 8
16 434 2
20 434 1
23 434 1
26 434 1
28 434 1
30 434 1
33 434 1
34 434 1
37 434 1
38 434 1
46 434 1
49 434 1
51 434 17
52 434 20
53 434 10
54 434 14
55 434 17
56 434 10
57 434 19
58 434 13
59 434 14
60 434 21
61 434 15
62 434 11
63 434 17
64 434 15
65 434 10
66 434 11
67 434 12
68 434 27
69 434 10
70 434 21
71 434 16
72 434 19
73 434 19
74 434 16
75 434 16
76 434 12
77 434 14
78 434 23
79 434 14
80 434 6
81 434 2
83 434 1
88 434 1
93 434 2
95 434 3
100 434 1
104 434 1
106 434 1
110 434 1
113 434 1
119 434 1
1 435 6
2 435 5
3 435 4
4 435 9
5 435 11
6 435 13
7 435 8
8 435 10
9 435 8
10 435 8
11 435 5
12 435 10
13 435 10
14 435 12
15 435 4
16 435 1
17 435 1
28 435 1
29 435 1
36 435 2
37 435 1
38 435 1
40 435 1
41 435 2
43 435 1
45 435 1
46 435 1
49 435 1
51 435 12
52 435 7
53 435 15
54 435 12
55 435 14
56 435 13
57 435 11
58 435 10
59 435 20
60 435 11
61 435 14
62 435 16
63 435 14
64 435 11
65 435 14
66 435 19
67 435 16
68 435 10
69 435 13
70 435 14
71 435 12
72 435 11
73 435 18
74 435 13
75 435 12
76 435 16
77 435 9
78 435 11
79 435 13
80 435 14
81 435 2
85 435 1
88 435 1
100 435 1
103 435 1
106 435 1
108 435 1
113 435 1
117 435 1
118 435 1
1 436 15
2 436 11
3 436 16
4 436 7
5 436 11
6 436 13
7 436 15
8 436 10
9 436 16
10 436 9
11 436 16
12 436 14
13 436 16
14 436 12
15 436 6
16 436 1
18 436 1
21 436 2
22 436 1
27 436 1
30 436 1
32 436 1
36 436 2
37 436 1
39 436 1
51 436 32
52 436 20
53 436 21
54 436 23
55 436 27
56 436 26
57 436 27
58 436 18
59 436 24
60 436 9
61 436 23
62 436 21
63 436 22
64 436 28
65 436 17
66 436 15
67 436 27
68 436 13
69 436 15
70 436 24
71 436 20
72 436 22
73 436 21
74 436 21
75 436 28
76 436 23
77 436 16
78 436 20
79 436 21
80 436 22
82 436 1
83 436 2
84 436 2
89 436 1
90 436 2
92 436 2
93 436 2
97 436 2
98 436 1
99 436 2
101 436 1
104 436 1
105 436 1
107 436 1
109 436 1
110 436 1
112 436 1
113 436 1
116 436 1
117 436 1
119 436 1
120 436 1
1 437 8
2 437 8
3 437 7
4 437 8
5 437 9
6 437 12
7 437 5
8 437 9
9 437 5
10 437 6
11 437 6
12 437 7
13 437 9
14 437 5
15 437 8
16 437 1
19 437 1
22 437 1
23 437 1
26 437 1
28 437 1
31 437 1
32 437 1
34 437 1
37 437 3
50 437 1
51 437 14
52 437 20
53 437 11
54 437 9
55 437 14
56 437 12
57 437 12
58 437 13
59 437 10
60 437 12
61 437 9
62 437 8
63 437 19
64 437 14
65 437 22
66 437 12
67 437 19
68 437 13
69 437 12
70 437 14
71 437 16
72 437 9
73 437 15
74 437 20
75 437 20
76 437 21
77 437 7
78 437 23
79 437 12
80 437 11
82 437 1
84 437 1
88 437 1
89 437 1
93 437 1
96 437 1
99 437 1
100 437 2
101 437 1
104 437 1
105 437 2
112 437 2
113 437 1
116 437 1
117 437 1
1 438 11
2 438 10
3 438 11
4 438 12
5 438 10
6 438 11
7 438 9
8 438 7
9 438 8
10 438 9
11 438 8
12 438 4
13 438 6
14 438 9
15 438 8
16 438 1
17 438 1
19 438 2
22 438 1
23 438 1
25 438 2
29 438 1
30 438 2
31 438 1
34 438 1
36 438 1
43 438 1
46 438 1
48 438 1
50 438 2
51 438 21
52 438 13
53 438 10
54 438 20
55 438 17
56 438 18
57 438 15
58 438 16
59 438 12
60 438 24
61 438 17
62 438 21
63 438 17
64 438 19
65 438 18
66 438 23
67 438 16
68 438 19
69 438 15
70 438 14
71 438 12
72 438 14
73 438 12
74 438 16
75 438 18
76 438 21
77 438 25
78 438 19
79 438 20
80 438 13
88 438 3
91 438 1
92 438 2
95 438 1
101 438 1
102 438 1
105 438 1
107 438 1
108 438 1
111 438 2
112 438 1
115 438 1
118 438 1
1 439 1
2 439 9
3 439 6
4 439 8
5 439 8
6 439 6
7 439 9
8 439 11
9 439 13
10 439 6
11 439 9
12 439 5
13 439 10
14 439 7
15 439 13
18 439 1
20 439 1
21 439 1
22 439 1
27 439 1
34 439 3
38 439 1
44 439 1
46 439 1
48 439 1
50 439 1
51 439 12
52 439 6
53 439 13
54 439 15
55 439 7
56 439 12
57 439 15
58 439 15
59 439 11
60 439 10
61 439 15
62 439 18
63 439 11
64 439 19
65 439 15
66 439 13
67 439 13
68 439 10
69 439 15
70 439 11
71 439 16
72 439 14
73 439 14
74 439 7
75 439 14
76 439 19
77 439 15
78 439 26
79 439 11
80 439 10
82 439 1
84 439 1
88 439 1
92 439 1
101 439 1
102 439 1
106 439 1
112 439 1
114 439 1
116 439 1
119 439 1
120 439 1
1 440 15
2 440 13
3 440 12
4 440 13
5 440 8
6 440 10
7 440 11
8 440 14
9 440 7
10 440 12
11 440 3
12 440 15
13 440 8
14 440 17
15 440 12
16 440 1
17 440 1
19 440 1
20 440 1
26 440 1
27 440 2
29 440 1
30 440 1
31 440 1
32 440 2
33 440 2
34 440 1
35 440 1
37 440 1
38 440 1
44 440 1
49 440 2
50 440 1
51 440 17
52 440 16
53 440 20
54 440 18
55 440 25
56 440 17
57 440 18
58 440 6
59 440 17
60 440 20
61 440 22
62 440 28
63 440 22
64 440 23
65 440 21
66 440 19
67 440 25
68 440 22
69 440 20
70 440 19
71 440 23
72 440 17
73 440 19
74 440 23
75 440 24
76 440 22
77 440 23
78 440 19
79 440 19
80 440 22
83 440 1
84 440 1
85 440 3
87 440 1
89 440 1
91 440 1
93 440 1
95 440 3
98 440 1
99 440 1
100 440 2
101 440 1
102 440 2
105 440 2
108 440 1
110 440 1
111 440 1
113 440 2
115 440 2
116 440 1
117 440 1
120 440 1
1 441 9
2 441 5
3 441 7
4 441 8
5 441 10
6 441 3
7 441 9
8 441 4
9 441 13
10 441 9
11 441 12
12 441 13
13 441 16
14 441 7
15 441 10
16 441 1
18 441 1
22 441 1
23 441 2
25 441 1
34 441 1
36 441 1
38 441 2
40 441 1
41 441 1
44 441 1
46 441 1
47 441 1
51 441 19
52 441 17
53 441 13
54 441 12
55 441 16
56 441 23
57 441 11
58 441 31
59 441 27
60 441 22
61 441 20
62 441 16
63 441 19
64 441 21
65 441 18
66 441 19
67 441 18
68 441 14
69 441 16
70 441 15
71 441 16
72 441 24
73 441 27
74 441 13
75 441 16
76 441 25
77 441 15
78 441 14
79 441 14
80 441 14
86 441 1
90 441 1
93 441 2
94 441 2
95 441 1
96 441 1
100 441 1
101 441 1
103 441 1
106 441 1
111 441 2
113 441 1
115 441 1
1 442 7
2 442 6
3 442 9
4 442 11
5 442 7
6 442 10
7 442 6
8 442 5
9 442 8
10 442 13
11 442 7
12 442 7
13 442 11
14 442 6
15 442 15
17 442 1
19 442 1
21 442 2
22 442 1
24 442 1
25 442 1
27 442 1
31 442 1
39 442 2
40 442 2
51 442 20
52 442 11
53 442 14
54 442 16
55 442 16
56 442 21
57 442 8
58 442 15
59 442 19
60 442 11
61 442 16
62 442 18
63 442 11
64 442 8
65 442 20
66 442 19
67 442 16
68 442 9
69 442 20
70 442 13
71 442 13
72 442 15
73 442 9
74 442 13
75 442 12
76 442 15
77 442 15
78 442 18
79 442 15
80 442 14
83 442 1
84 442 1
92 442 1
93 442 1
95 442 1
96 442 1
97 442 1
103 442 2
105 442 1
108 442 1
109 442 1
118 442 1
1 443 6
2 443 11
3 443 7
4 443 8
5 443 8
6 443 5
7 443 10
8 443 9
9 443 5
10 443 4
11 443 12
12 443 5
13 443 7
14 443 8
15 443 8
17 443 1
19 443 1
21 443 2
25 443 1
29 443 1
41 443 1
47 443 1
48 443 1
51 443 11
52 443 12
53 443 18
54 443 14
55 443 9
56 443 21
57 443 18
58 443 17
59 443 10
60 443 19
61 443 10
62 443 15
63 443 17
64 443 12
65 443 19
66 443 13
67 443 12
68 443 15
69 443 13
70 443 15
71 443 20
72 443 20
73 443 18
74 443 15
75 443 12
76 443 10
77 443 13
78 443 8
79 443 19
80 443 18
81 443 1
84 443 1
90 443 1
97 443 1
105 443 1
108 443 1
112 443 1
116 443 1
117 443 1
119 443 1
1 444 15
2 444 10
3 444 9
4 444 8
5 444 7
6 444 9
7 444 13
8 444 13
9 444 13
10 444 12
11 444 16
12 444 7
13 444 8
14 444 15
15 444 10
18 444 1
20 444 2
21 444 1
23 444 1
24 444 2
26 444 2
27 444 1
31 444 2
33 444 1
37 444 1
38 444 2
39 444 2
41 444 1
43 444 1
44 444 1
46 444 1
48 444 2
51 444 19
52 444 24
53 444 30
54 444 18
55 444 27
56 444 18
57 444 20
58 444 14
59 444 23
60 444 20
61 444 16
62 444 26
63 444 15
64 444 28
65 444 23
66 444 22
67 444 19
68 444 30
69 444 22
70 444 19
71 444 21
72 444 23
73 444 13
74 444 19
75 444 18
76 444 22
77 444 21
78 444 31
79 444 19
80 444 14
81 444 1
84 444 1
86 444 1
88 444 1
91 444 1
95 444 1
99 444 2
101 444 2
105 444 1
107 444 1
108 444 1
110 444 1
111 444 2
113 444 1
117 444 1
120 444 1
1 445 9
2 445 10
3 445 7
4 445 8
5 445 8
6 445 8
7 445 6
8 445 4
9 445 11
10 445 12
11 445 9
12 445 8
13 445 10
14 445 4
15 445 10
19 445 1
20 445 1
22 445 1
24 445 1
25 445 1
29 445 1
31 445 1
38 445 1
39 445 2
40 445 1
42 445 1
44 445 1
48 445 1
49 445 4
51 445 11
52 445 15
53 445 13
54 445 20
55 445 14
56 445 21
57 445 14
58 445 16
59 445 19
60 445 16
61 445 14
62 445 18
63 445 16
64 445 12
65 445 17
66 445 16
67 445 13
68 445 16
69 445 22
70 445 17
71 445 13
72 445 9
73 445 13
74 445 17
75 445 14
76 445 16
77 445 16
78 445 18
79 445 17
80 445 15
83 445 1
86 445 1
88 445 2
92 445 1
93 445 1
94 445 2
96 445 2
97 445 1
98 445 1
100 445 1
101 445 1
104 445 1
105 445 1
107 445 1
116 445 1
119 445 1
1 446 15
2 446 13
3 446 13
4 446 9
5 446 8
6 446 20
7 446 9
8 446 10
9 446 14
10 446 8
11 446 10
12 446 11
13 446 9
14 446 8
15 446 6
17 446 2
18 446 2
20 446 1
21 446 2
24 446 1
27 446 1
29 446 1
30 446 1
32 446 1
33 446 1
34 446 1
35 446 2
36 446 1
37 446 1
38 446 2
41 446 1
46 446 5
47 446 1
49 446 2
51 446 26
52 446 21
53 446 27
54 446 25
55 446 23
56 446 24
57 446 24
58 446 24
59 446 17
60 446 15
61 446 19
62 446 18
63 446 18
64 446 24
65 446 17
66 446 24
67 446 16
68 446 31
69 446 20
70 446 22
71 446 22
72 446 25
73 446 19
74 446 21
75 446 26
76 446 24
77 446 22
78 446 23
79 446 15
80 446 17
81 446 1
84 446 1
85 446 1
87 446 1
88 446 1
89 446 3
91 446 1
94 446 1
102 446 1
103 446 2
107 446 1
108 446 1
110 446 1
111 446 1
115 446 1
117 446 1
119 446 1
120 446 1
1 447 9
2 447 6
3 447 12
4 447 8
5 447 14
6 447 8
7 447 8
8 447 12
9 447 7
10 447 8
11 447 10
12 447 7
13 447 13
14 447 8
15 447 14
17 447 1
18 447 1
20 447 2
21 447 1
27 447 1
29 447 1
31 447 1
34 447 1
35 447 1
37 447 1
41 447 1
43 447 1
45 447 1
46 447 1
49 447 1
51 447 24
52 447 11
53 447 14
54 447 15
55 447 26
56 447 16
57 447 16
58 447 15
59 447 8
60 447 15
61 447 14
62 447 21
63 447 9
64 447 21
65 447 23
66 447 14
67 447 24
68 447 25
69 447 18
70 447 16
71 447 14
72 447 13
73 447 15
74 447 19
75 447 6
76 447 18
77 447 25
78 447 19
79 447 12
80 447 16
83 447 1
85 447 1
89 447 2
90 447 1
91 447 1
95 447 1
96 447 1
97 447 1
99 447 1
100 447 1
102 447 2
103 447 1
106 447 2
109 447 1
115 447 1
116 447 1
1 448 15
2 448 10
3 448 15
4 448 9
5 448 11
6 448 15
7 448 14
8 448 8
9 448 9
10 448 17
11 448 11
12 448 10
13 448 17
14 448 11
15 448 12
16 448 2
19 448 1
20 448 1
21 448 1
22 448 2
25 448 1
30 448 1
33 448 1
34 448 1
35 448 1
36 448 2
37 448 1
39 448 1
41 448 1
44 448 1
45 448 2
47 448 3
49 448 1
50 448 2
51 448 20
52 448 21
53 448 23
54 448 20
55 448 27
56 448 21
57 448 21
58 448 16
59 448 28
60 448 24
61 448 17
62 448 29
63 448 25
64 448 26
65 448 21
66 448 22
67 448 19
68 448 16
69 448 15
70 448 21
71 448 25
72 448 24
73 448 27
74 448 19
75 448 25
76 448 26
77 448 24
78 448 20
79 448 30
80 448 21
81 448 2
84 448 1
86 448 2
88 448 1
90 448 1
93 448 1
94 448 1
95 448 1
97 448 2
98 448 1
101 448 1
105 448 1
107 448 1
108 448 1
110 448 1
114 448 2
115 448 2
118 448 2
1 449 10
2 449 8
3 449 7
4 449 7
5 449 12
6 449 4
7 449 7
8 449 9
9 449 9
10 449 5
11 449 7
12 449 7
13 449 9
14 449 8
15 449 5
16 449 1
17 449 2
18 449 1
25 449 1
26 449 1
29 449 1
35 449 1
36 449 1
41 449 1
42 449 2
43 449 1
44 449 1
47 449 1
51 449 9
52 449 19
53 449 14
54 449 20
55 449 8
56 449 14
57 449 16
58 449 12
59 449 16
60 449 7
61 449 10
62 449 18
63 449 17
64 449 11
65 449 20
66 449 15
67 449 13
68 449 14
69 449 13
70 449 12
71 449 7
72 449 8
73 449 15
74 449 9
75 449 10
76 449 18
77 449 16
78 449 15
79 449 16
80 449 13
85 449 1
86 449 1
88 449 2
91 449 1
101 449 2
103 449 1
107 449 1
108 449 1
111 449 1
114 449 1
119 449 1
120 449 1
1 450 15
2 450 19
3 450 22
4 450 8
5 450 8
6 450 7
7 450 13
8 450 10
9 450 4
10 450 12
11 450 10
12 450 12
13 450 9
14 450 6
15 450 13
16 450 1
17 450 1
20 450 1
24 450 1
25 450 2
26 450 1
27 450 1
28 450 2
30 450 1
31 450 1
36 450 2
40 450 1
44 450 2
47 450 1
49 450 1
50 450 1
51 450 23
52 450 24
53 450 19
54 450 23
55 450 15
56 450 18
57 450 22
58 450 19
59 450 21
60 450 18
61 450 24
62 450 19
63 450 16
64 450 12
65 450 21
66 450 10
67 450 24
68 450 15
69 450 21
70 450 19
71 450 23
72 450 10
73 450 16
74 450 29
75 450 21
76 450 19
77 450 17
78 450 26
79 450 20
80 450 19
83 450 1
85 450 1
86 450 1
87 450 1
90 450 1
91 450 2
92 450 1
94 450 1
96 450 1
97 450 1
100 450 1
105 450 1
106 450 2
107 450 2
109 450 3
110 450 1
111 450 1
112 450 1
118 450 1
119 450 1
1 451 8
2 451 6
3 451 10
4 451 9
5 451 12
6 451 13
7 451 8
8 451 11
9 451 11
10 451 12
11 451 13
12 451 12
13 451 14
14 451 7
15 451 12
16 451 1
21 451 1
23 451 1
25 451 1
26 451 2
27 451 1
28 451 1
34 451 1
36 451 2
37 451 1
38 451 1
39 451 1
42 451 1
43 451 2
44 451 2
45 451 1
46 451 1
47 451 1
51 451 19
52 451 22
53 451 19
54 451 22
55 451 24
56 451 22
57 451 27
58 451 26
59 451 22
60 451 24
61 451 14
62 451 15
63 451 30
64 451 21
65 451 30
66 451 31
67 451 21
68 451 23
69 451 24
70 451 21
71 451 28
72 451 26
73 451 26
74 451 19
75 451 26
76 451 23
77 451 18
78 451 17
79 451 26
80 451 24
84 451 2
85 451 1
88 451 1
89 451 2
90 451 2
91 451 1
93 451 1
96 451 1
101 451 2
102 451 2
103 451 1
104 451 2
105 451 1
107 451 3
116 451 1
119 451 1
1 452 7
2 452 7
3 452 10
4 452 5
5 452 10
6 452 9
7 452 8
8 452 5
9 452 10
10 452 12
11 452 6
12 452 6
13 452 8
14 452 5
15 452 10
17 452 2
19 452 3
21 452 1
25 452 1
27 452 1
29 452 1
36 452 1
37 452 1
38 452 1
42 452 1
47 452 1
48 452 1
51 452 22
52 452 24
53 452 18
54 452 21
55 452 11
56 452 11
57 452 21
58 452 17
59 452 17
60 452 13
61 452 6
62 452 10
63 452 11
64 452 9
65 452 14
66 452 13
67 452 12
68 452 14
69 452 17
70 452 18
71 452 9
72 452 13
73 452 13
74 452 15
75 452 4
76 452 15
77 452 10
78 452 12
79 452 14
80 452 12
82 452 1
87 452 1
88 452 1
91 452 1
94 452 1
96 452 1
97 452 1
98 452 1
100 452 3
101 452 1
102 452 2
106 452 1
114 452 1
117 452 1
1 453 17
2 453 11
3 453 10
4 453 10
5 453 18
6 453 11
7 453 10
8 453 11
9 453 12
10 453 10
11 453 13
12 453 10
13 453 11
14 453 11
15 453 13
17 453 1
18 453 1
19 453 1
24 453 1
25 453 1
31 453 1
33 453 1
36 453 2
37 453 1
38 453 2
40 453 1
42 453 2
44 453 1
47 453 1
48 453 1
50 453 1
51 453 14
52 453 21
53 453 14
54 453 20
55 453 22
56 453 18
57 453 19
58 453 20
59 453 24
60 453 20
61 453 23
62 453 27
63 453 34
64 453 16
65 453 22
66 453 21
67 453 18
68 453 16
69 453 20
70 453 12
71 453 16
72 453 21
73 453 21
74 453 15
75 453 21
76 453 20
77 453 18
78 453 17
79 453 21
80 453 18
81 453 1
87 453 4
89 453 1
92 453 2
93 453 1
96 453 1
97 453 2
98 453 1
100 453 1
101 453 1
103 453 2
105 453 2
109 453 1
110 453 1
111 453 2
112 453 1
120 453 1
1 454 10
2 454 8
3 454 11
4 454 12
5 454 6
6 454 13
7 454 8
8 454 13
9 454 7
10 454 5
11 454 11
12 454 8
13 454 13
14 454 9
15 454 12
19 454 1
20 454 1
25 454 1
27 454 1
28 454 1
31 454 1
32 454 2
35 454 2
37 454 1
38 454 1
39 454 1
40 454 1
42 454 1
43 454 1
44 454 2
46 454 2
48 454 1
50 454 1
51 454 15
52 454 10
53 454 17
54 454 10
55 454 12
56 454 17
57 454 17
58 454 15
59 454 23
60 454 13
61 454 19
62 454 11
63 454 10
64 454 24
65 454 19
66 454 19
67 454 13
68 454 13
69 454 20
70 454 17
71 454 15
72 454 21
73 454 20
74 454 14
75 454 22
76 454 24
77 454 17
78 454 15
79 454 14
80 454 20
84 454 1
85 454 1
86 454 1
88 454 1
89 454 1
93 454 2
96 454 1
98 454 2
113 454 1
1 455 12
2 455 11
3 455 8
4 455 2
5 455 22
6 455 9
7 455 13
8 455 10
9 455 9
10 455 7
11 455 11
12 455 15
13 455 10
14 455 14
15 455 9
18 455 1
21 455 1
22 455 1
24 455 1
28 455 3
30 455 1
34 455 1
36 455 1
40 455 1
41 455 1
44 455 1
45 455 3
50 455 1
51 455 16
52 455 18
53 455 13
54 455 24
55 455 15
56 455 19
57 455 16
58 455 14
59 455 15
60 455 18
61 455 16
62 455 15
63 455 15
64 455 15
65 455 23
66 455 20
67 455 19
68 455 14
69 455 15
70 455 24
71 455 12
72 455 11
73 455 17
74 455 23
75 455 16
76 455 26
77 455 13
78 455 22
79 455 19
80 455 16
81 455 1
82 455 1
88 455 1
92 455 1
99 455 2
100 455 1
101 455 2
105 455 1
112 455 1
113 455 1
115 455 2
120 455 1
1 456 12
2 456 15
3 456 19
4 456 16
5 456 9
6 456 8
7 456 5
8 456 9
9 456 9
10 456 11
11 456 12
12 456 17
13 456 9
14 456 6
15 456 10
16 456 1
17 456 1
18 456 2
19 456 1
20 456 1
22 456 1
31 456 2
33 456 1
34 456 1
39 456 1
40 456 1
44 456 1
50 456 1
51 456 20
52 456 23
53 456 15
54 456 18
55 456 16
56 456 25
57 456 17
58 456 21
59 456 17
60 456 21
61 456 23
62 456 14
63 456 19
64 456 23
65 456 24
66 456 26
67 456 15
68 456 15
69 456 24
70 456 19
71 456 15
72 456 19
73 456 23
74 456 25
75 456 16
76 456 16
77 456 16
78 456 20
79 456 31
80 456 24
82 456 1
85 456 2
91 456 1
92 456 1
93 456 1
95 456 1
97 456 2
99 456 1
104 456 2
108 456 1
112 456 1
114 456 2
116 456 2
117 456 1
118 456 1
1 457 10
2 457 21
3 457 6
4 457 5
5 457 11
6 457 13
7 457 15
8 457 12
9 457 13
10 457 10
11 457 16
12 457 10
13 457 13
14 457 10
15 457 10
17 457 1
19 457 1
20 457 1
24 457 1
29 457 3
30 457 1
32 457 1
34 457 1
36 457 2
40 457 1
41 457 1
43 457 1
47 457 1
50 457 2
51 457 22
52 457 21
53 457 24
54 457 16
55 457 31
56 457 26
57 457 23
58 457 15
59 457 23
60 457 18
61 457 17
62 457 20
63 457 29
64 457 20
65 457 24
66 457 23
67 457 24
68 457 19
69 457 25
70 457 13
71 457 23
72 457 28
73 457 24
74 457 18
75 457 22
76 457 20
77 457 25
78 457 34
79 457 19
80 457 30
81 457 1
83 457 1
85 457 2
87 457 1
92 457 1
93 457 1
94 457 1
96 457 1
100 457 1
109 457 1
112 457 1
114 457 1
115 457 2
1 458 15
2 458 6
3 458 14
4 458 10
5 458 12
6 458 12
7 458 12
8 458 8
9 458 12
10 458 18
11 458 8
12 458 12
13 458 9
14 458 8
15 458 15
16 458 2
17 458 2
19 458 1
21 458 2
24 458 1
25 458 2
27 458 2
29 458 1
30 458 2
36 458 2
37 458 1
40 458 1
41 458 1
42 458 1
44 458 2
46 458 1
47 458 2
48 458 1
51 458 24
52 458 17
53 458 19
54 458 17
55 458 18
56 458 15
57 458 31
58 458 21
59 458 21
60 458 31
61 458 14
62 458 23
63 458 19
64 458 19
65 458 21
66 458 25
67 458 22
68 458 25
69 458 25
70 458 22
71 458 19
72 458 21
73 458 21
74 458 28
75 458 16
76 458 28
77 458 13
78 458 18
79 458 20
80 458 21
81 458 1
87 458 1
88 458 1
90 458 1
91 458 1
93 458 2
95 458 1
96 458 1
97 458 1
99 458 1
100 458 2
101 458 1
103 458 1
104 458 1
108 458 1
116 458 1
117 458 1
118 458 1
119 458 1
1 459 12
2 459 9
3 459 7
4 459 16
5 459 12
6 459 10
7 459 4
8 459 10
9 459 11
10 459 9
11 459 6
12 459 12
13 459 10
14 459 12
15 459 9
17 459 2
18 459 1
19 459 1
22 459 1
23 459 1
25 459 1
27 459 1
29 459 1
30 459 1
32 459 3
34 459 1
37 459 1
42 459 2
43 459 1
46 459 1
47 459 1
49 459 1
51 459 12
52 459 13
53 459 8
54 459 18
55 459 18
56 459 22
57 459 15
58 459 31
59 459 13
60 459 9
61 459 19
62 459 19
63 459 20
64 459 18
65 459 15
66 459 15
67 459 14
68 459 14
69 459 15
70 459 27
71 459 19
72 459 15
73 459 20
74 459 18
75 459 13
76 459 18
77 459 24
78 459 20
79 459 26
80 459 12
83 459 1
84 459 2
88 459 1
89 459 1
90 459 1
94 459 1
100 459 2
102 459 1
104 459 1
105 459 1
109 459 1
110 459 2
116 459 2
118 459 1
1 460 9
2 460 10
3 460 11
4 460 5
5 460 9
6 460 10
7 460 9
8 460 6
9 460 7
10 460 9
11 460 11
12 460 11
13 460 11
14 460 6
15 460 5
18 460 1
19 460 1
21 460 1
22 460 1
25 460 2
30 460 2
34 460 1
38 460 1
39 460 1
44 460 2
45 460 1
48 460 1
51 460 15
52 460 24
53 460 19
54 460 13
55 460 16
56 460 18
57 460 23
58 460 20
59 460 18
60 460 20
61 460 13
62 460 18
63 460 16
64 460 16
65 460 14
66 460 15
67 460 21
68 460 21
69 460 17
70 460 12
71 460 14
72 460 15
73 460 25
74 460 26
75 460 12
76 460 21
77 460 22
78 460 17
79 460 10
80 460 20
82 460 1
85 460 1
86 460 1
90 460 1
93 460 1
94 460 1
95 460 1
97 460 1
101 460 2
110 460 1
117 460 1
120 460 1
1 461 16
2 461 18
3 461 22
4 461 19
5 461 12
6 461 27
7 461 18
8 461 16
9 461 20
10 461 14
11 461 27
12 461 20
13 461 17
14 461 17
15 461 17
16 461 2
17 461 2
19 461 2
20 461 2
21 461 21
22 461 27
23 461 27
24 461 21
25 461 30
26 461 20
27 461 24
28 461 22
29 461 16
30 461 24
31 461 31
32 461 22
33 461 16
34 461 25
35 461 24
36 461 26
37 461 33
38 461 35
39 461 21
40 461 21
41 461 21
42 461 22
43 461 28
44 461 23
45 461 18
46 461 24
47 461 12
48 461 21
49 461 19
50 461 28
51 461 29
52 461 23
53 461 24
54 461 26
55 461 29
56 461 27
57 461 30
58 461 26
59 461 18
60 461 20
61 461 26
62 461 21
63 461 28
64 461 26
65 461 21
66 461 31
67 461 28
68 461 26
69 461 21
70 461 19
71 461 20
72 461 26
73 461 26
74 461 23
75 461 31
76 461 23
77 461 23
78 461 20
79 461 17
80 461 21
81 461 1
84 461 1
86 461 3
87 461 1
88 461 1
90 461 1
93 461 1
95 461 1
99 461 2
102 461 1
105 461 2
106 461 1
108 461 1
113 461 3
114 461 1
115 461 1
116 461 1
117 461 2
119 461 1
120 461 1
1 462 16
2 462 17
3 462 25
4 462 18
5 462 17
6 462 14
7 462 17
8 462 21
9 462 24
10 462 16
11 462 21
12 462 21
13 462 19
14 462 21
15 462 18
16 462 2
18 462 1
21 462 23
22 462 33
23 462 22
24 462 14
25 462 24
26 462 28
27 462 27
28 462 21
29 462 20
30 462 17
31 462 18
32 462 17
33 462 14
34 462 20
35 462 15
36 462 25
37 462 13
38 462 16
39 462 18
40 462 19
41 462 11
42 462 22
43 462 23
44 462 17
45 462 17
46 462 13
47 462 23
48 462 19
49 462 21
50 462 26
51 462 18
52 462 22
53 462 20
54 462 16
55 462 20
56 462 15
57 462 20
58 462 17
59 462 21
60 462 23
61 462 19
62 462 14
63 462 15
64 462 18
65 462 16
66 462 15
67 462 21
68 462 11
69 462 13
70 462 11
71 462 13
72 462 16
73 462 17
74 462 22
75 462 14
76 462 23
77 462 18
78 462 19
79 462 18
80 462 24
81 462 2
82 462 2
84 462 3
85 462 1
86 462 3
87 462 2
88 462 1
90 462 2
91 462 2
92 462 1
96 462 1
105 462 1
107 462 1
109 462 1
110 462 1
112 462 2
113 462 2
115 462 1
116 462 1
117 462 1
119 462 1
1 463 19
2 463 16
3 463 18
4 463 20
5 463 27
6 463 25
7 463 17
8 463 23
9 463 17
10 463 22
11 463 15
12 463 20
13 463 22
14 463 23
15 463 21
16 463 1
17 463 1
18 463 1
19 463 1
21 463 19
22 463 31
23 463 20
24 463 24
25 463 24
26 463 23
27 463 16
28 463 22
29 463 22
30 463 19
31 463 31
32 463 21
33 463 29
34 463 23
35 463 21
36 463 24
37 463 13
38 463 18
39 463 29
40 463 24
41 463 22
42 463 20
43 463 21
44 463 26
45 463 20
46 463 18
47 463 22
48 463 21
49 463 25
50 463 27
51 463 25
52 463 24
53 463 16
54 463 24
55 463 24
56 463 15
57 463 21
58 463 22
59 463 21
60 463 22
61 463 23
62 463 22
63 463 25
64 463 18
65 463 17
66 463 14
67 463 20
68 463 35
69 463 28
70 463 22
71 463 21
72 463 18
73 463 25
74 463 18
75 463 18
76 463 23
77 463 33
78 463 15
79 463 21
80 463 19
81 463 1
83 463 2
84 463 1
85 463 1
88 463 2
91 463 1
92 463 3
95 463 3
98 463 1
101 463 1
104 463 1
105 463 1
106 463 1
107 463 1
109 463 2
110 463 2
112 463 2
115 463 2
117 463 1
118 463 1
120 463 1
1 464 21
2 464 10
3 464 13
4 464 25
5 464 24
6 464 15
7 464 20
8 464 7
9 464 16
10 464 17
11 464 20
12 464 20
13 464 30
14 464 21
15 464 20
16 464 4
17 464 2
19 464 1
21 464 21
22 464 21
23 464 28
24 464 22
25 464 28
26 464 24
27 464 16
28 464 21
29 464 20
30 464 28
31 464 22
32 464 23
33 464 19
34 464 20
35 464 26
36 464 20
37 464 22
38 464 13
39 464 26
40 464 17
41 464 25
42 464 25
43 464 25
44 464 19
45 464 20
46 464 17
47 464 30
48 464 25
49 464 29
50 464 22
51 464 20
52 464 29
53 464 28
54 464 23
55 464 25
56 464 26
57 464 19
58 464 16
59 464 23
60 464 17
61 464 22
62 464 16
63 464 19
64 464 21
65 464 15
66 464 24
67 464 19
68 464 20
69 464 23
70 464 16
71 464 23
72 464 24
73 464 29
74 464 14
75 464 16
76 464 17
77 464 26
78 464 21
79 464 25
80 464 26
81 464 3
82 464 2
83 464 2
84 464 1
85 464 1
86 464 1
87 464 1
88 464 2
89 464 1
90 464 2
91 464 1
92 464 2
95 464 2
96 464 1
97 464 4
98 464 2
100 464 1
101 464 1
103 464 3
104 464 3
105 464 1
106 464 1
108 464 1
110 464 2
111 464 1
112 464 1
113 464 1
115 464 2
116 464 1
117 464 1
119 464 1
1 465 13
2 465 24
3 465 15
4 465 15
5 465 10
6 465 17
7 465 15
8 465 16
9 465 10
10 465 19
11 465 18
12 465 16
13 465 25
14 465 17
15 465 20
16 465 1
17 465 1
18 465 2
21 465 20
22 465 10
23 465 20
24 465 14
25 465 21
26 465 16
27 465 18
28 465 24
29 465 16
30 465 12
31 465 18
32 465 13
33 465 15
34 465 18
35 465 17
36 465 19
37 465 20
38 465 18
39 465 8
40 465 22
41 465 18
42 465 25
43 465 14
44 465 15
45 465 7
46 465 15
47 465 16
48 465 13
49 465 21
50 465 18
51 465 26
52 465 16
53 465 14
54 465 12
55 465 18
56 465 24
57 465 24
58 465 22
59 465 13
60 465 16
61 465 20
62 465 14
63 465 11
64 465 19
65 465 17
66 465 18
67 465 16
68 465 23
69 465 27
70 465 16
71 465 20
72 465 10
73 465 13
74 465 13
75 465 11
76 465 15
77 465 15
78 465 24
79 465 14
80 465 9
81 465 2
85 465 1
86 465 1
87 465 1
88 465 1
91 465 2
93 465 3
95 465 2
98 465 3
99 465 1
101 465 4
103 465 1
108 465 2
109 465 1
111 465 1
112 465 1
114 465 1
115 465 1
116 465 1
119 465 1
1 466 25
2 466 18
3 466 19
4 466 23
5 466 16
6 466 22
7 466 23
8 466 24
9 466 16
10 466 24
11 466 26
12 466 24
13 466 19
14 466 29
15 466 13
16 466 1
20 466 3
21 466 26
22 466 21
23 466 19
24 466 22
25 466 22
26 466 23
27 466 30
28 466 25
29 466 22
30 466 21
31 466 23
32 466 30
33 466 23
34 466 20
35 466 20
36 466 31
37 466 30
38 466 17
39 466 20
40 466 21
41 466 25
42 466 24
43 466 16
44 466 16
45 466 27
46 466 20
47 466 21
48 466 33
49 466 18
50 466 25
51 466 23
52 466 18
53 466 27
54 466 24
55 466 17
56 466 20
57 466 18
58 466 23
59 466 28
60 466 22
61 466 28
62 466 14
63 466 23
64 466 18
65 466 12
66 466 20
67 466 20
68 466 21
69 466 27
70 466 19
71 466 21
72 466 31
73 466 20
74 466 21
75 466 23
76 466 17
77 466 13
78 466 21
79 466 18
80 466 25
82 466 3
83 466 1
88 466 2
89 466 4
90 466 1
91 466 1
93 466 2
94 466 1
96 466 1
97 466 2
98 466 1
100 466 2
101 466 1
103 466 1
106 466 2
107 466 2
108 466 3
109 466 1
110 466 2
112 466 1
113 466 2
114 466 1
115 466 2
116 466 1
117 466 1
118 466 1
119 466 1
1 467 15
2 467 18
3 467 22
4 467 19
5 467 12
6 467 25
7 467 15
8 467 19
9 467 17
10 467 16
11 467 10
12 467 21
13 467 24
14 467 15
15 467 9
17 467 1
18 467 2
19 467 2
21 467 18
22 467 17
23 467 13
24 467 18
25 467 18
26 467 16
27 467 15
28 467 21
29 467 20
30 467 21
31 467 18
32 467 9
33 467 16
34 467 14
35 467 32
36 467 16
37 467 20
38 467 19
39 467 20
40 467 13
41 467 13
42 467 22
43 467 19
44 467 18
45 467 19
46 467 13
47 467 16
48 467 22
49 467 14
50 467 21
51 467 33
52 467 22
53 467 21
54 467 20
55 467 17
56 467 22
57 467 24
58 467 22
59 467 17
60 467 17
61 467 17
62 467 14
63 467 21
64 467 22
65 467 17
66 467 17
67 467 24
68 467 24
69 467 19
70 467 20
71 467 25
72 467 13
73 467 25
74 467 16
75 467 24
76 467 22
77 467 17
78 467 15
79 467 18
80 467 15
82 467 1
83 467 2
84 467 2
85 467 1
86 467 1
87 467 3
89 467 2
90 467 1
91 467 2
92 467 1
93 467 1
94 467 1
98 467 2
104 467 2
105 467 2
106 467 1
107 467 2
108 467 2
110 467 1
113 467 1
114 467 2
115 467 2
116 467 1
118 467 1
1 468 31
2 468 16
3 468 25
4 468 24
5 468 22
6 468 23
7 468 15
8 468 14
9 468 24
10 468 13
11 468 19
12 468 13
13 468 24
14 468 20
15 468 21
16 468 1
17 468 1
20 468 1
21 468 23
22 468 15
23 468 16
24 468 26
25 468 21
26 468 21
27 468 26
28 468 19
29 468 26
30 468 17
31 468 20
32 468 26
33 468 22
34 468 23
35 468 25
36 468 24
37 468 16
38 468 14
39 468 31
40 468 24
41 468 18
42 468 21
43 468 21
44 468 14
45 468 19
46 468 24
47 468 24
48 468 19
49 468 25
50 468 23
51 468 25
52 468 14
53 468 32
54 468 26
55 468 26
56 468 25
57 468 24
58 468 23
59 468 19
60 468 22
61 468 19
62 468 18
63 468 24
64 468 19
65 468 28
66 468 23
67 468 19
68 468 15
69 468 20
70 468 27
71 468 27
72 468 27
73 468 23
74 468 32
75 468 17
76 468 16
77 468 22
78 468 28
79 468 31
80 468 21
81 468 1
84 468 3
85 468 2
86 468 2
87 468 1
89 468 1
90 468 2
92 468 1
93 468 1
94 468 1
97 468 4
98 468 3
99 468 3
100 468 1
101 468 3
102 468 1
104 468 2
105 468 1
106 468 1
107 468 1
108 468 1
109 468 1
110 468 1
112 468 2
113 468 1
114 468 3
116 468 1
118 468 1
1 469 13
2 469 17
3 469 21
4 469 21
5 469 12
6 469 13
7 469 18
8 469 19
9 469 19
10 469 19
11 469 22
12 469 26
13 469 18
14 469 20
15 469 13
16 469 1
17 469 1
18 469 2
19 469 3
20 469 1
21 469 27
22 469 19
23 469 17
24 469 19
25 469 17
26 469 20
27 469 17
28 469 13
29 469 26
30 469 18
31 469 21
32 469 28
33 469 26
34 469 23
35 469 27
36 469 19
37 469 21
38 469 23
39 469 32
40 469 20
41 469 22
42 469 20
43 469 21
44 469 18
45 469 20
46 469 16
47 469 34
48 469 19
49 469 25
50 469 24
51 469 20
52 469 17
53 469 13
54 469 32
55 469 24
56 469 15
57 469 20
58 469 23
59 469 25
60 469 24
61 469 17
62 469 25
63 469 28
64 469 20
65 469 14
66 469 16
67 469 17
68 469 31
69 469 20
70 469 29
71 469 19
72 469 21
73 469 10
74 469 17
75 469 27
76 469 16
77 469 26
78 469 25
79 469 20
80 469 15
81 469 1
82 469 1
83 469 1
86 469 1
87 469 3
88 469 1
89 469 1
91 469 3
94 469 3
96 469 2
97 469 2
99 469 2
100 469 2
102 469 2
104 469 3
105 469 1
106 469 2
107 469 1
110 469 1
113 469 1
114 469 1
117 469 1
1 470 19
2 470 11
3 470 17
4 470 19
5 470 22
6 470 12
7 470 12
8 470 15
9 470 16
10 470 24
11 470 21
12 470 17
13 470 20
14 470 21
15 470 22
16 470 1
17 470 3
18 470 1
20 470 1
21 470 17
22 470 15
23 470 17
24 470 14
25 470 13
26 470 17
27 470 24
28 470 16
29 470 26
30 470 24
31 470 23
32 470 18
33 470 22
34 470 17
35 470 18
36 470 9
37 470 25
38 470 10
39 470 25
40 470 16
41 470 20
42 470 17
43 470 19
44 470 19
45 470 22
46 470 11
47 470 12
48 470 23
49 470 17
50 470 19
51 470 18
52 470 24
53 470 14
54 470 26
55 470 15
56 470 20
57 470 15
58 470 22
59 470 11
60 470 12
61 470 21
62 470 18
63 470 22
64 470 28
65 470 17
66 470 25
67 470 22
68 470 29
69 470 13
70 470 21
71 470 12
72 470 18
73 470 12
74 470 17
75 470 10
76 470 13
77 470 24
78 470 25
79 470 19
80 470 21
81 470 1
82 470 2
83 470 1
85 470 1
86 470 2
87 470 1
89 470 1
91 470 1
93 470 2
95 470 2
96 470 1
97 470 1
98 470 2
99 470 1
100 470 1
101 470 1
102 470 2
103 470 2
106 470 1
107 470 3
108 470 1
109 470 1
110 470 1
111 470 1
113 470 1
115 470 2
118 470 1
119 470 1
1 471 14
2 471 30
3 471 30
4 471 24
5 471 23
6 471 14
7 471 14
8 471 21
9 471 19
10 471 18
11 471 14
12 471 29
13 471 14
14 471 22
15 471 12
17 471 1
19 471 2
21 471 18
22 471 23
23 471 27
24 471 20
25 471 17
26 471 30
27 471 22
28 471 25
29 471 21
30 471 19
31 471 24
32 471 20
33 471 20
34 471 20
35 471 14
36 471 28
37 471 19
38 471 26
39 471 19
40 471 20
41 471 28
42 471 18
43 471 20
44 471 15
45 471 14
46 471 22
47 471 28
48 471 31
49 471 16
50 471 28
51 471 20
52 471 22
53 471 31
54 471 21
55 471 26
56 471 25
57 471 21
58 471 17
59 471 15
60 471 26
61 471 19
62 471 24
63 471 22
64 471 22
65 471 23
66 471 20
67 471 18
68 471 21
69 471 19
70 471 25
71 471 18
72 471 22
73 471 24
74 471 17
75 471 32
76 471 15
77 471 23
78 471 27
79 471 18
80 471 24
82 471 1
85 471 1
86 471 1
87 471 1
90 471 2
91 471 1
93 471 1
94 471 1
96 471 1
98 471 3
100 471 1
101 471 1
102 471 1
104 471 1
105 471 1
106 471 1
107 471 3
108 471 2
111 471 2
112 471 1
113 471 2
115 471 2
117 471 1
119 471 1
1 472 16
2 472 22
3 472 21
4 472 29
5 472 15
6 472 10
7 472 25
8 472 17
9 472 20
10 472 16
11 472 18
12 472 22
13 472 21
14 472 16
15 472 17
17 472 2
20 472 2
21 472 13
22 472 23
23 472 20
24 472 28
25 472 28
26 472 19
27 472 21
28 472 22
29 472 23
30 472 24
31 472 19
32 472 23
33 472 22
34 472 21
35 472 19
36 472 22
37 472 14
38 472 20
39 472 29
40 472 19
41 472 27
42 472 17
43 472 10
44 472 20
45 472 11
46 472 18
47 472 18
48 472 13
49 472 21
50 472 16
51 472 25
52 472 23
53 472 27
54 472 26
55 472 15
56 472 12
57 472 21
58 472 21
59 472 15
60 472 31
61 472 34
62 472 21
63 472 27
64 472 21
65 472 19
66 472 25
67 472 25
68 472 21
69 472 20
70 472 26
71 472 23
72 472 20
73 472 18
74 472 18
75 472 15
76 472 22
77 472 28
78 472 18
79 472 20
80 472 28
81 472 2
82 472 1
86 472 1
88 472 1
89 472 2
90 472 3
91 472 1
95 472 2
96 472 1
97 472 2
98 472 2
99 472 2
102 472 1
104 472 2
106 472 1
107 472 2
110 472 1
111 472 1
114 472 2
117 472 1
118 472 3
119 472 1
120 472 1
1 473 10
2 473 26
3 473 14
4 473 16
5 473 18
6 473 12
7 473 31
8 473 17
9 473 25
10 473 20
11 473 13
12 473 19
13 473 15
14 473 17
15 473 14
16 473 2
21 473 22
22 473 25
23 473 19
24 473 21
25 473 15
26 473 24
27 473 18
28 473 18
29 473 16
30 473 22
31 473 16
32 473 24
33 473 18
34 473 15
35 473 16
36 473 24
37 473 18
38 473 16
39 473 20
40 473 16
41 473 15
42 473 19
43 473 21
44 473 21
45 473 21
46 473 14
47 473 25
48 473 23
49 473 15
50 473 16
51 473 22
52 473 32
53 473 25
54 473 16
55 473 19
56 473 15
57 473 23
58 473 15
59 473 13
60 473 12
61 473 21
62 473 20
63 473 21
64 473 17
65 473 23
66 473 18
67 473 23
68 473 23
69 473 22
70 473 26
71 473 29
72 473 17
73 473 18
74 473 13
75 473 18
76 473 19
77 473 17
78 473 19
79 473 20
80 473 23
83 473 1
84 473 2
85 473 1
87 473 2
88 473 2
89 473 1
90 473 1
92 473 2
93 473 2
94 473 1
95 473 2
96 473 2
97 473 1
98 473 1
99 473 1
101 473 3
102 473 2
104 473 1
108 473 1
109 473 1
113 473 1
115 473 2
116 473 1
1 474 16
2 474 19
3 474 17
4 474 13
5 474 19
6 474 19
7 474 21
8 474 17
9 474 23
10 474 20
11 474 23
12 474 25
13 474 9
14 474 17
15 474 15
18 474 1
19 474 2
21 474 29
22 474 18
23 474 22
24 474 21
25 474 20
26 474 30
27 474 11
28 474 18
29 474 27
30 474 31
31 474 20
32 474 25
33 474 21
34 474 26
35 474 18
36 474 17
37 474 26
38 474 29
39 474 18
40 474 22
41 474 19
42 474 22
43 474 22
44 474 25
45 474 14
46 474 21
47 474 20
48 474 20
49 474 27
50 474 21
51 474 18
52 474 22
53 474 20
54 474 25
55 474 20
56 474 17
57 474 18
58 474 21
59 474 30
60 474 17
61 474 22
62 474 20
63 474 29
64 474 20
65 474 24
66 474 17
67 474 23
68 474 20
69 474 32
70 474 27
71 474 15
72 474 26
73 474 22
74 474 22
75 474 20
76 474 20
77 474 24
78 474 22
79 474 29
80 474 21
82 474 1
83 474 1
84 474 1
86 474 1
89 474 2
90 474 1
91 474 2
94 474 1
97 474 2
98 474 1
100 474 1
101 474 1
102 474 2
104 474 1
105 474 2
106 474 2
108 474 1
109 474 1
110 474 2
112 474 1
114 474 1
115 474 1
116 474 1
117 474 1
118 474 1
119 474 4
1 475 18
2 475 17
3 475 20
4 475 16
5 475 20
6 475 14
7 475 19
8 475 19
9 475 18
10 475 20
11 475 22
12 475 24
13 475 13
14 475 14
15 475 18
16 475 2
17 475 1
19 475 2
21 475 10
22 475 28
23 475 11
24 475 15
25 475 26
26 475 17
27 475 16
28 475 21
29 475 18
30 475 20
31 475 16
32 475 14
33 475 18
34 475 18
35 475 25
36 475 13
37 475 23
38 475 20
39 475 19
40 475 29
41 475 15
42 475 19
43 475 20
44 475 23
45 475 16
46 475 23
47 475 16
48 475 15
49 475 17
50 475 17
51 475 10
52 475 22
53 475 22
54 475 13
55 475 25
56 475 16
57 475 17
58 475 25
59 475 16
60 475 14
61 475 12
62 475 21
63 475 20
64 475 20
65 475 15
66 475 28
67 475 27
68 475 18
69 475 14
70 475 15
71 475 22
72 475 22
73 475 14
74 475 20
75 475 18
76 475 18
77 475 14
78 475 22
79 475 11
80 475 18
81 475 2
83 475 1
86 475 1
87 475 2
90 475 1
91 475 1
93 475 4
94 475 1
95 475 1
98 475 2
102 475 1
103 475 2
105 475 1
106 475 1
108 475 2
109 475 1
110 475 2
113 475 1
114 475 1
116 475 1
117 475 2
119 475 1
120 475 1
1 476 17
2 476 19
3 476 13
4 476 25
5 476 19
6 476 20
7 476 20
8 476 16
9 476 25
10 476 13
11 476 25
12 476 11
13 476 20
14 476 17
15 476 20
16 476 1
17 476 1
18 476 1
19 476 2
20 476 2
21 476 27
22 476 23
23 476 25
24 476 14
25 476 34
26 476 25
27 476 21
28 476 21
29 476 23
30 476 17
31 476 30
32 476 27
33 476 17
34 476 24
35 476 31
36 476 23
37 476 20
38 476 24
39 476 21
40 476 18
41 476 22
42 476 18
43 476 14
44 476 27
45 476 25
46 476 20
47 476 19
48 476 21
49 476 23
50 476 31
51 476 16
52 476 19
53 476 19
54 476 23
55 476 22
56 476 25
57 476 27
58 476 15
59 476 20
60 476 29
61 476 15
62 476 13
63 476 24
64 476 23
65 476 25
66 476 22
67 476 23
68 476 15
69 476 27
70 476 24
71 476 26
72 476 11
73 476 14
74 476 23
75 476 20
76 476 22
77 476 19
78 476 21
79 476 26
80 476 16
82 476 3
83 476 1
84 476 1
85 476 1
86 476 1
88 476 4
89 476 3
90 476 2
91 476 1
92 476 1
94 476 2
95 476 3
97 476 3
98 476 1
99 476 1
100 476 1
102 476 1
105 476 1
106 476 3
107 476 2
110 476 2
111 476 2
115 476 1
116 476 1
117 476 4
118 476 3
119 476 1
120 476 1
1 477 16
2 477 13
3 477 14
4 477 22
5 477 23
6 477 25
7 477 18
8 477 19
9 477 17
10 477 24
11 477 23
12 477 20
13 477 22
14 477 13
15 477 27
16 477 1
17 477 4
19 477 1
20 477 1
21 477 26
22 477 24
23 477 20
24 477 26
25 477 22
26 477 21
27 477 33
28 477 25
29 477 17
30 477 27
31 477 27
32 477 22
33 477 24
34 477 22
35 477 25
36 477 27
37 477 25
38 477 17
39 477 21
40 477 26
41 477 21
42 477 34
43 477 18
44 477 21
45 477 24
46 477 17
47 477 21
48 477 17
49 477 24
50 477 20
51 477 23
52 477 29
53 477 26
54 477 16
55 477 23
56 477 25
57 477 26
58 477 20
59 477 24
60 477 27
61 477 19
62 477 19
63 477 33
64 477 26
65 477 29
66 477 23
67 477 28
68 477 25
69 477 20
70 477 25
71 477 17
72 477 25
73 477 23
74 477 17
75 477 20
76 477 17
77 477 26
78 477 30
79 477 25
80 477 19
81 477 2
82 477 2
84 477 1
85 477 2
90 477 1
91 477 1
93 477 1
96 477 1
97 477 1
98 477 1
100 477 1
101 477 2
103 477 1
104 477 1
105 477 1
106 477 2
107 477 2
109 477 2
110 477 1
111 477 1
112 477 3
115 477 2
118 477 1
119 477 2
120 477 1
1 478 15
2 478 20
3 478 22
4 478 19
5 478 22
6 478 14
7 478 14
8 478 12
9 478 24
10 478 18
11 478 7
12 478 11
13 478 12
14 478 17
15 478 13
18 478 1
19 478 2
21 478 16
22 478 13
23 478 28
24 478 16
25 478 23
26 478 22
27 478 22
28 478 23
29 478 12
30 478 23
31 478 19
32 478 25
33 478 17
34 478 24
35 478 16
36 478 21
37 478 9
38 478 17
39 478 16
40 478 26
41 478 8
42 478 24
43 478 23
44 478 19
45 478 25
46 478 18
47 478 14
48 478 20
49 478 22
50 478 20
51 478 14
52 478 24
53 478 18
54 478 24
55 478 11
56 478 31
57 478 14
58 478 18
59 478 18
60 478 20
61 478 22
62 478 23
63 478 24
64 478 21
65 478 19
66 478 16
67 478 23
68 478 15
69 478 15
70 478 28
71 478 12
72 478 28
73 478 20
74 478 21
75 478 17
76 478 16
77 478 22
78 478 18
79 478 14
80 478 19
81 478 1
83 478 1
84 478 2
85 478 3
88 478 2
89 478 1
91 478 3
92 478 2
93 478 1
95 478 3
98 478 1
102 478 2
103 478 3
106 478 1
107 478 1
108 478 2
109 478 1
111 478 1
112 478 1
113 478 1
117 478 1
118 478 1
1 479 18
2 479 12
3 479 18
4 479 15
5 479 19
6 479 15
7 479 16
8 479 22
9 479 11
10 479 27
11 479 13
12 479 11
13 479 16
14 479 16
15 479 13
16 479 1
17 479 2
18 479 1
20 479 1
21 479 18
22 479 19
23 479 16
24 479 21
25 479 20
26 479 17
27 479 20
28 479 14
29 479 16
30 479 15
31 479 17
32 479 23
33 479 18
34 479 15
35 479 25
36 479 22
37 479 15
38 479 15
39 479 17
40 479 25
41 479 17
42 479 16
43 479 22
44 479 20
45 479 16
46 479 15
47 479 20
48 479 17
49 479 18
50 479 33
51 479 17
52 479 16
53 479 20
54 479 23
55 479 17
56 479 17
57 479 23
58 479 19
59 479 18
60 479 16
61 479 15
62 479 23
63 479 28
64 479 20
65 479 11
66 479 25
67 479 21
68 479 20
69 479 16
70 479 21
71 479 14
72 479 18
73 479 17
74 479 16
75 479 25
76 479 19
77 479 20
78 479 19
79 479 11
80 479 13
83 479 1
84 479 2
85 479 1
86 479 1
87 479 2
88 479 1
89 479 1
91 479 1
92 479 1
93 479 1
94 479 2
96 479 3
98 479 1
100 479 1
101 479 1
102 479 1
106 479 2
108 479 1
109 479 1
111 479 2
112 479 1
114 479 3
117 479 1
118 479 3
119 479 3
120 479 1
1 480 20
2 480 19
3 480 15
4 480 18
5 480 21
6 480 16
7 480 22
8 480 16
9 480 14
10 480 16
11 480 17
12 480 18
13 480 19
14 480 15
15 480 12
16 480 1
19 480 1
21 480 16
22 480 22
23 480 17
24 480 16
25 480 22
26 480 22
27 480 18
28 480 22
29 480 20
30 480 17
31 480 24
32 480 18
33 480 17
34 480 22
35 480 12
36 480 20
37 480 19
38 480 25
39 480 16
40 480 24
41 480 14
42 480 20
43 480 23
44 480 17
45 480 17
46 480 28
47 480 16
48 480 17
49 480 17
50 480 15
51 480 12
52 480 27
53 480 17
54 480 19
55 480 26
56 480 22
57 480 13
58 480 19
59 480 19
60 480 34
61 480 20
62 480 21
63 480 10
64 480 21
65 480 18
66 480 20
67 480 15
68 480 22
69 480 17
70 480 14
71 480 11
72 480 10
73 480 25
74 480 20
75 480 18
76 480 14
77 480 18
78 480 18
79 480 21
80 480 17
83 480 3
84 480 3
87 480 1
88 480 1
89 480 1
91 480 1
93 480 1
94 480 2
95 480 3
98 480 1
102 480 1
103 480 1
104 480 1
108 480 1
109 480 1
110 480 2
115 480 2
116 480 2
117 480 1
118 480 2
120 480 2
1 481 19
2 481 15
3 481 9
4 481 14
5 481 17
6 481 22
7 481 14
8 481 15
9 481 13
10 481 11
11 481 12
12 481 10
13 481 14
14 481 15
15 481 15
16 481 1
17 481 1
18 481 1
19 481 1
21 481 18
22 481 18
23 481 14
24 481 18
25 481 15
26 481 23
27 481 18
28 481 19
29 481 21
30 481 11
31 481 17
32 481 23
33 481 20
34 481 19
35 481 12
36 481 14
37 481 13
38 481 16
39 481 28
40 481 16
41 481 26
42 481 13
43 481 21
44 481 22
45 481 11
46 481 19
47 481 14
48 481 21
49 481 17
50 481 13
51 481 12
52 481 25
53 481 13
54 481 17
55 481 18
56 481 9
57 481 27
58 481 16
59 481 19
60 481 16
61 481 19
62 481 13
63 481 11
64 481 18
65 481 22
66 481 15
67 481 22
68 481 20
69 481 19
70 481 12
71 481 16
72 481 12
73 481 11
74 481 22
75 481 20
76 481 17
77 481 18
78 481 22
79 481 15
80 481 18
82 481 2
85 481 2
87 481 2
88 481 2
89 481 2
91 481 1
92 481 2
93 481 1
94 481 2
95 481 3
96 481 1
98 481 1
99 481 2
100 481 1
103 481 1
105 481 1
106 481 1
108 481 2
110 481 1
111 481 3
112 481 2
113 481 1
115 481 1
117 481 1
119 481 1
1 482 23
2 482 21
3 482 20
4 482 13
5 482 9
6 482 23
7 482 12
8 482 18
9 482 17
10 482 22
11 482 16
12 482 19
13 482 16
14 482 18
15 482 15
16 482 1
17 482 1
18 482 1
19 482 1
20 482 2
21 482 23
22 482 24
23 482 20
24 482 15
25 482 24
26 482 17
27 482 20
28 482 28
29 482 26
30 482 24
31 482 15
32 482 16
33 482 15
34 482 24
35 482 21
36 482 23
37 482 24
38 482 19
39 482 28
40 482 26
41 482 19
42 482 21
43 482 25
44 482 22
45 482 20
46 482 17
47 482 19
48 482 21
49 482 24
50 482 21
51 482 27
52 482 28
53 482 18
54 482 15
55 482 21
56 482 16
57 482 16
58 482 16
59 482 21
60 482 21
61 482 18
62 482 20
63 482 22
64 482 16
65 482 20
66 482 15
67 482 19
68 482 28
69 482 33
70 482 23
71 482 18
72 482 28
73 482 14
74 482 24
75 482 21
76 482 18
77 482 16
78 482 28
79 482 16
80 482 29
83 482 1
84 482 1
86 482 2
89 482 2
90 482 2
93 482 1
95 482 1
98 482 2
99 482 2
105 482 1
106 482 1
108 482 1
110 482 2
112 482 2
113 482 1
114 482 1
115 482 2
116 482 3
117 482 1
118 482 1
119 482 2
1 483 21
2 483 16
3 483 11
4 483 17
5 483 18
6 483 20
7 483 11
8 483 16
9 483 14
10 483 11
11 483 16
12 483 15
13 483 15
14 483 16
15 483 17
16 483 2
18 483 1
19 483 1
21 483 22
22 483 11
23 483 17
24 483 22
25 483 20
26 483 17
27 483 17
28 483 22
29 483 12
30 483 16
31 483 15
32 483 10
33 483 17
34 483 14
35 483 17
36 483 21
37 483 22
38 483 13
39 483 26
40 483 12
41 483 14
42 483 16
43 483 20
44 483 10
45 483 18
46 483 12
47 483 12
48 483 16
49 483 18
50 483 14
51 483 17
52 483 14
53 483 13
54 483 16
55 483 17
56 483 21
57 483 21
58 483 17
59 483 10
60 483 16
61 483 22
62 483 13
63 483 19
64 483 16
65 483 17
66 483 11
67 483 10
68 483 15
69 483 11
70 483 19
71 483 18
72 483 15
73 483 13
74 483 19
75 483 19
76 483 11
77 483 23
78 483 18
79 483 22
80 483 15
82 483 1
83 483 2
84 483 1
86 483 1
87 483 1
89 483 1
90 483 2
91 483 3
92 483 1
94 483 1
96 483 3
97 483 1
98 483 1
99 483 1
100 483 1
101 483 1
103 483 1
104 483 1
105 483 1
106 483 2
108 483 2
110 483 1
114 483 1
115 483 1
118 483 1
120 483 1
1 484 18
2 484 10
3 484 19
4 484 21
5 484 23
6 484 14
7 484 15
8 484 12
9 484 16
10 484 20
11 484 22
12 484 12
13 484 17
14 484 18
15 484 23
16 484 2
19 484 2
20 484 1
21 484 17
22 484 25
23 484 19
24 484 31
25 484 12
26 484 17
27 484 27
28 484 19
29 484 19
30 484 13
31 484 21
32 484 19
33 484 11
34 484 21
35 484 19
36 484 13
37 484 18
38 484 22
39 484 25
40 484 19
41 484 18
42 484 19
43 484 22
44 484 16
45 484 12
46 484 13
47 484 12
48 484 18
49 484 16
50 484 24
51 484 27
52 484 23
53 484 17
54 484 18
55 484 21
56 484 18
57 484 17
58 484 15
59 484 18
60 484 14
61 484 13
62 484 18
63 484 28
64 484 20
65 484 9
66 484 19
67 484 20
68 484 21
69 484 18
70 484 13
71 484 18
72 484 21
73 484 20
74 484 15
75 484 13
76 484 18
77 484 18
78 484 22
79 484 15
80 484 12
82 484 1
85 484 1
93 484 1
95 484 1
97 484 1
98 484 2
99 484 1
100 484 1
102 484 1
103 484 2
110 484 1
112 484 3
114 484 3
116 484 1
119 484 1
120 484 2
1 485 11
2 485 6
3 485 15
4 485 13
5 485 11
6 485 10
7 485 17
8 485 20
9 485 13
10 485 12
11 485 16
12 485 14
13 485 23
14 485 15
15 485 12
19 485 1
21 485 21
22 485 18
23 485 19
24 485 23
25 485 12
26 485 14
27 485 22
28 485 14
29 485 16
30 485 20
31 485 22
32 485 24
33 485 14
34 485 21
35 485 22
36 485 19
37 485 17
38 485 17
39 485 21
40 485 17
41 485 24
42 485 18
43 485 22
44 485 16
45 485 11
46 485 20
47 485 23
48 485 15
49 485 13
50 485 18
51 485 16
52 485 23
53 485 17
54 485 14
55 485 22
56 485 21
57 485 16
58 485 19
59 485 13
60 485 20
61 485 16
62 485 13
63 485 15
64 485 17
65 485 14
66 485 20
67 485 20
68 485 16
69 485 21
70 485 17
71 485 11
72 485 25
73 485 11
74 485 21
75 485 25
76 485 24
77 485 18
78 485 21
79 485 15
80 485 12
81 485 1
82 485 2
83 485 3
84 485 2
85 485 2
88 485 1
89 485 1
91 485 2
93 485 2
95 485 1
96 485 1
98 485 2
101 485 1
102 485 1
103 485 1
105 485 1
106 485 1
111 485 1
113 485 1
115 485 1
116 485 1
117 485 1
119 485 2
120 485 1
1 486 15
2 486 23
3 486 13
4 486 10
5 486 13
6 486 13
7 486 16
8 486 13
9 486 19
10 486 22
11 486 18
12 486 21
13 486 9
14 486 15
15 486 17
19 486 1
20 486 1
21 486 15
22 486 22
23 486 16
24 486 18
25 486 18
26 486 30
27 486 9
28 486 14
29 486 27
30 486 25
31 486 22
32 486 30
33 486 23
34 486 12
35 486 20
36 486 24
37 486 11
38 486 20
39 486 16
40 486 9
41 486 15
42 486 18
43 486 16
44 486 21
45 486 21
46 486 14
47 486 15
48 486 15
49 486 25
50 486 16
51 486 16
52 486 25
53 486 15
54 486 20
55 486 20
56 486 24
57 486 14
58 486 14
59 486 20
60 486 20
61 486 13
62 486 18
63 486 20
64 486 23
65 486 20
66 486 16
67 486 17
68 486 17
69 486 19
70 486 24
71 486 18
72 486 15
73 486 15
74 486 14
75 486 18
76 486 9
77 486 21
78 486 20
79 486 12
80 486 15
81 486 1
84 486 1
87 486 3
94 486 3
96 486 1
98 486 3
99 486 1
101 486 2
102 486 1
103 486 1
104 486 1
105 486 1
106 486 1
107 486 1
110 486 1
115 486 2
116 486 1
117 486 1
119 486 1
120 486 1
1 487 18
2 487 15
3 487 17
4 487 21
5 487 10
6 487 19
7 487 22
8 487 37
9 487 23
10 487 19
11 487 17
12 487 26
13 487 20
14 487 14
15 487 11
16 487 1
17 487 4
19 487 1
20 487 2
21 487 17
22 487 22
23 487 30
24 487 31
25 487 26
26 487 21
27 487 20
28 487 26
29 487 27
30 487 16
31 487 17
32 487 14
33 487 15
34 487 18
35 487 24
36 487 23
37 487 21
38 487 16
39 487 20
40 487 24
41 487 24
42 487 21
43 487 30
44 487 23
45 487 24
46 487 21
47 487 17
48 487 23
49 487 14
50 487 22
51 487 17
52 487 25
53 487 22
54 487 15
55 487 24
56 487 21
57 487 21
58 487 19
59 487 32
60 487 18
61 487 22
62 487 27
63 487 19
64 487 23
65 487 21
66 487 21
67 487 20
68 487 24
69 487 23
70 487 19
71 487 20
72 487 26
73 487 18
74 487 19
75 487 31
76 487 25
77 487 29
78 487 28
79 487 16
80 487 32
82 487 1
83 487 2
84 487 2
85 487 1
87 487 1
88 487 1
90 487 1
91 487 1
92 487 2
93 487 1
97 487 2
99 487 1
100 487 1
101 487 1
102 487 2
103 487 1
104 487 1
107 487 4
108 487 2
109 487 2
110 487 1
111 487 1
115 487 2
117 487 1
118 487 1
119 487 2
1 488 16
2 488 24
3 488 18
4 488 18
5 488 11
6 488 8
7 488 11
8 488 16
9 488 21
10 488 19
11 488 19
12 488 17
13 488 13
14 488 13
15 488 15
16 488 1
19 488 1
20 488 2
21 488 16
22 488 20
23 488 18
24 488 25
25 488 27
26 488 17
27 488 22
28 488 14
29 488 23
30 488 20
31 488 18
32 488 20
33 488 19
34 488 32
35 488 17
36 488 24
37 488 23
38 488 21
39 488 17
40 488 15
41 488 29
42 488 17
43 488 24
44 488 27
45 488 22
46 488 21
47 488 20
48 488 16
49 488 22
50 488 19
51 488 24
52 488 19
53 488 29
54 488 18
55 488 22
56 488 24
57 488 21
58 488 19
59 488 17
60 488 20
61 488 26
62 488 21
63 488 21
64 488 18
65 488 23
66 488 24
67 488 16
68 488 16
69 488 22
70 488 13
71 488 26
72 488 15
73 488 18
74 488 30
75 488 23
76 488 18
77 488 20
78 488 11
79 488 20
80 488 22
85 488 1
87 488 1
88 488 1
89 488 3
90 488 1
93 488 1
94 488 1
95 488 2
99 488 2
100 488 2
104 488 2
112 488 2
113 488 4
114 488 1
116 488 1
117 488 2
118 488 3
119 488 3
120 488 3
1 489 15
2 489 22
3 489 16
4 489 18
5 489 12
6 489 17
7 489 25
8 489 14
9 489 22
10 489 17
11 489 32
12 489 22
13 489 18
14 489 17
15 489 33
16 489 5
17 489 1
19 489 1
20 489 4
21 489 18
22 489 30
23 489 16
24 489 29
25 489 22
26 489 25
27 489 21
28 489 22
29 489 12
30 489 27
31 489 19
32 489 16
33 489 18
34 489 13
35 489 26
36 489 26
37 489 29
38 489 12
39 489 20
40 489 17
41 489 18
42 489 29
43 489 26
44 489 15
45 489 23
46 489 24
47 489 25
48 489 17
49 489 24
50 489 27
51 489 20
52 489 18
53 489 24
54 489 15
55 489 28
56 489 13
57 489 18
58 489 22
59 489 17
60 489 25
61 489 20
62 489 29
63 489 28
64 489 28
65 489 28
66 489 15
67 489 29
68 489 32
69 489 19
70 489 18
71 489 29
72 489 16
73 489 30
74 489 21
75 489 18
76 489 21
77 489 23
78 489 20
79 489 18
80 489 16
81 489 1
82 489 1
88 489 3
90 489 1
91 489 2
94 489 3
95 489 1
97 489 1
99 489 1
100 489 1
102 489 1
103 489 2
104 489 1
105 489 3
106 489 2
108 489 2
109 489 2
110 489 3
115 489 4
116 489 2
117 489 2
119 489 2
120 489 1
1 490 19
2 490 13
3 490 18
4 490 20
5 490 18
6 490 23
7 490 23
8 490 19
9 490 22
10 490 16
11 490 28
12 490 25
13 490 20
14 490 14
15 490 17
17 490 1
18 490 1
19 490 1
20 490 1
21 490 29
22 490 28
23 490 21
24 490 25
25 490 23
26 490 23
27 490 19
28 490 18
29 490 25
30 490 26
31 490 16
32 490 13
33 490 22
34 490 27
35 490 18
36 490 16
37 490 24
38 490 19
39 490 28
40 490 20
41 490 18
42 490 14
43 490 16
44 490 18
45 490 21
46 490 35
47 490 22
48 490 20
49 490 25
50 490 26
51 490 30
52 490 19
53 490 29
54 490 29
55 490 28
56 490 25
57 490 17
58 490 24
59 490 18
60 490 20
61 490 22
62 490 16
63 490 28
64 490 15
65 490 21
66 490 18
67 490 22
68 490 21
69 490 20
70 490 25
71 490 28
72 490 18
73 490 17
74 490 36
75 490 19
76 490 37
77 490 29
78 490 27
79 490 24
80 490 22
81 490 2
82 490 3
83 490 1
84 490 1
85 490 1
88 490 2
89 490 2
90 490 1
91 490 1
93 490 2
95 490 2
96 490 2
98 490 1
100 490 3
104 490 1
105 490 1
106 490 2
110 490 1
111 490 1
112 490 1
115 490 1
116 490 1
118 490 1
119 490 1
1 491 24
2 491 21
3 491 26
4 491 17
5 491 18
6 491 25
7 491 18
8 491 21
9 491 17
10 491 17
11 491 23
12 491 19
13 491 26
14 491 15
15 491 16
16 491 1
17 491 2
18 491 1
19 491 2
21 491 15
22 491 24
23 491 26
24 491 28
25 491 17
26 491 30
27 491 29
28 491 21
29 491 26
30 491 23
31 491 22
32 491 19
33 491 33
34 491 26
35 491 20
36 491 23
37 491 23
38 491 32
39 491 16
40 491 14
41 491 17
42 491 23
43 491 17
44 491 17
45 491 26
46 491 22
47 491 25
48 491 25
49 491 20
50 491 19
51 491 20
52 491 22
53 491 25
54 491 25
55 491 21
56 491 24
57 491 19
58 491 27
59 491 17
60 491 22
61 491 24
62 491 29
63 491 13
64 491 23
65 491 25
66 491 20
67 491 21
68 491 27
69 491 25
70 491 26
71 491 17
72 491 30
73 491 19
74 491 26
75 491 17
76 491 18
77 491 18
78 491 29
79 491 23
80 491 21
81 491 1
84 491 1
85 491 1
86 491 1
87 491 1
88 491 2
89 491 1
91 491 2
93 491 1
94 491 2
97 491 1
98 491 1
100 491 2
101 491 3
103 491 3
107 491 1
108 491 1
111 491 2
112 491 2
114 491 2
115 491 1
118 491 1
120 491 1
1 492 15
2 492 6
3 492 12
4 492 18
5 492 18
6 492 16
7 492 15
8 492 11
9 492 16
10 492 21
11 492 15
12 492 17
13 492 23
14 492 11
15 492 24
17 492 1
19 492 2
20 492 1
21 492 18
22 492 16
23 492 18
24 492 19
25 492 7
26 492 17
27 492 13
28 492 21
29 492 17
30 492 11
31 492 20
32 492 19
33 492 16
34 492 20
35 492 15
36 492 22
37 492 19
38 492 26
39 492 23
40 492 19
41 492 15
42 492 10
43 492 12
44 492 13
45 492 22
46 492 20
47 492 25
48 492 26
49 492 13
50 492 19
51 492 18
52 492 22
53 492 17
54 492 17
55 492 21
56 492 20
57 492 15
58 492 20
59 492 22
60 492 12
61 492 17
62 492 22
63 492 21
64 492 15
65 492 16
66 492 20
67 492 22
68 492 17
69 492 18
70 492 21
71 492 21
72 492 25
73 492 14
74 492 24
75 492 10
76 492 18
77 492 11
78 492 29
79 492 18
80 492 14
82 492 2
84 492 1
86 492 1
88 492 1
90 492 1
91 492 1
93 492 1
95 492 1
98 492 1
99 492 1
101 492 1
102 492 1
103 492 1
104 492 3
105 492 1
106 492 1
107 492 3
108 492 1
109 492 2
110 492 1
112 492 1
115 492 1
116 492 2
117 492 1
119 492 1
1 493 27
2 493 9
3 493 20
4 493 16
5 493 20
6 493 16
7 493 26
8 493 16
9 493 21
10 493 17
11 493 14
12 493 22
13 493 19
14 493 19
15 493 21
16 493 1
17 493 3
18 493 1
20 493 1
21 493 21
22 493 29
23 493 16
24 493 21
25 493 27
26 493 19
27 493 18
28 493 29
29 493 25
30 493 22
31 493 20
32 493 20
33 493 24
34 493 24
35 493 27
36 493 21
37 493 19
38 493 17
39 493 25
40 493 18
41 493 23
42 493 18
43 493 21
44 493 17
45 493 16
46 493 26
47 493 24
48 493 24
49 493 32
50 493 22
51 493 18
52 493 21
53 493 19
54 493 19
55 493 22
56 493 36
57 493 23
58 493 21
59 493 22
60 493 17
61 493 29
62 493 19
63 493 26
64 493 29
65 493 23
66 493 26
67 493 25
68 493 27
69 493 26
70 493 18
71 493 21
72 493 24
73 493 22
74 493 16
75 493 26
76 493 29
77 493 26
78 493 24
79 493 28
80 493 30
81 493 1
83 493 1
84 493 1
86 493 3
89 493 1
90 493 1
91 493 1
92 493 1
94 493 1
97 493 1
98 493 2
99 493 2
100 493 1
101 493 1
103 493 1
106 493 1
107 493 1
109 493 2
110 493 2
111 493 1
112 493 2
114 493 2
119 493 3
120 493 3
1 494 21
2 494 16
3 494 13
4 494 15
5 494 21
6 494 16
7 494 23
8 494 22
9 494 17
10 494 13
11 494 23
12 494 18
13 494 20
14 494 18
15 494 21
16 494 1
20 494 1
21 494 9
22 494 21
23 494 27
24 494 19
25 494 25
26 494 21
27 494 24
28 494 20
29 494 24
30 494 18
31 494 27
32 494 12
33 494 25
34 494 24
35 494 11
36 494 22
37 494 27
38 494 12
39 494 29
40 494 27
41 494 19
42 494 16
43 494 28
44 494 20
45 494 26
46 494 23
47 494 27
48 494 23
49 494 21
50 494 21
51 494 23
52 494 18
53 494 23
54 494 16
55 494 27
56 494 22
57 494 18
58 494 22
59 494 21
60 494 14
61 494 15
62 494 17
63 494 21
64 494 25
65 494 26
66 494 18
67 494 27
68 494 31
69 494 21
70 494 31
71 494 19
72 494 26
73 494 24
74 494 31
75 494 28
76 494 31
77 494 19
78 494 18
79 494 22
80 494 17
81 494 1
87 494 2
88 494 1
90 494 1
91 494 2
93 494 1
94 494 2
95 494 1
97 494 1
99 494 2
100 494 1
102 494 1
104 494 2
107 494 2
109 494 1
113 494 3
114 494 1
115 494 1
116 494 3
117 494 3
118 494 1
119 494 1
1 495 16
2 495 14
3 495 24
4 495 26
5 495 19
6 495 14
7 495 18
8 495 32
9 495 24
10 495 25
11 495 15
12 495 25
13 495 20
14 495 19
15 495 12
16 495 1
17 495 2
18 495 2
21 495 21
22 495 31
23 495 22
24 495 17
25 495 17
26 495 20
27 495 27
28 495 22
29 495 21
30 495 32
31 495 22
32 495 25
33 495 21
34 495 25
35 495 23
36 495 21
37 495 24
38 495 31
39 495 28
40 495 34
41 495 16
42 495 21
43 495 22
44 495 23
45 495 32
46 495 16
47 495 21
48 495 22
49 495 18
50 495 19
51 495 20
52 495 27
53 495 21
54 495 27
55 495 18
56 495 25
57 495 19
58 495 27
59 495 22
60 495 12
61 495 33
62 495 23
63 495 25
64 495 26
65 495 22
66 495 24
67 495 23
68 495 25
69 495 21
70 495 18
71 495 25
72 495 19
73 495 23
74 495 21
75 495 26
76 495 23
77 495 34
78 495 19
79 495 25
80 495 31
81 495 1
83 495 1
86 495 1
87 495 1
88 495 1
91 495 3
93 495 1
94 495 2
95 495 1
96 495 3
97 495 2
99 495 2
101 495 1
105 495 1
106 495 1
108 495 3
109 495 2
110 495 1
115 495 1
116 495 1
117 495 1
118 495 2
119 495 2
1 496 23
2 496 27
3 496 15
4 496 24
5 496 10
6 496 23
7 496 22
8 496 17
9 496 23
10 496 17
11 496 29
12 496 17
13 496 26
14 496 25
15 496 24
16 496 1
17 496 3
21 496 31
22 496 24
23 496 21
24 496 27
25 496 21
26 496 27
27 496 26
28 496 16
29 496 20
30 496 31
31 496 21
32 496 17
33 496 18
34 496 21
35 496 14
36 496 20
37 496 19
38 496 25
39 496 25
40 496 18
41 496 27
42 496 25
43 496 14
44 496 21
45 496 25
46 496 23
47 496 26
48 496 16
49 496 22
50 496 17
51 496 26
52 496 24
53 496 18
54 496 26
55 496 21
56 496 33
57 496 16
58 496 20
59 496 23
60 496 16
61 496 25
62 496 25
63 496 26
64 496 35
65 496 24
66 496 26
67 496 24
68 496 20
69 496 20
70 496 20
71 496 21
72 496 20
73 496 22
74 496 27
75 496 16
76 496 28
77 496 22
78 496 27
79 496 24
80 496 26
81 496 2
82 496 1
83 496 1
86 496 3
88 496 1
89 496 1
90 496 1
95 496 1
96 496 1
97 496 1
98 496 2
99 496 1
100 496 2
101 496 2
102 496 1
103 496 2
105 496 4
106 496 1
107 496 4
108 496 2
109 496 1
111 496 1
116 496 4
117 496 1
1 497 15
2 497 19
3 497 9
4 497 19
5 497 14
6 497 18
7 497 13
8 497 14
9 497 19
10 497 17
11 497 26
12 497 24
13 497 9
14 497 18
15 497 16
19 497 2
21 497 22
22 497 12
23 497 19
24 497 15
25 497 14
26 497 19
27 497 13
28 497 15
29 497 23
30 497 12
31 497 18
32 497 19
33 497 18
34 497 13
35 497 21
36 497 23
37 497 13
38 497 11
39 497 13
40 497 15
41 497 20
42 497 17
43 497 16
44 497 16
45 497 17
46 497 19
47 497 19
48 497 20
49 497 20
50 497 14
51 497 18
52 497 22
53 497 32
54 497 13
55 497 23
56 497 23
57 497 16
58 497 21
59 497 21
60 497 22
61 497 19
62 497 19
63 497 24
64 497 20
65 497 16
66 497 12
67 497 22
68 497 16
69 497 18
70 497 20
71 497 26
72 497 18
73 497 29
74 497 14
75 497 18
76 497 25
77 497 17
78 497 22
79 497 15
80 497 17
81 497 3
84 497 1
87 497 1
88 497 1
89 497 1
90 497 3
91 497 1
94 497 1
95 497 1
97 497 2
99 497 1
101 497 3
102 497 1
105 497 1
106 497 2
109 497 2
113 497 1
117 497 2
120 497 1
1 498 19
2 498 22
3 498 23
4 498 13
5 498 21
6 498 27
7 498 23
8 498 18
9 498 13
10 498 23
11 498 22
12 498 20
13 498 23
14 498 13
15 498 22
17 498 1
20 498 1
21 498 18
22 498 21
23 498 28
24 498 18
25 498 18
26 498 24
27 498 22
28 498 20
29 498 17
30 498 17
31 498 24
32 498 29
33 498 21
34 498 19
35 498 21
36 498 21
37 498 20
38 498 28
39 498 20
40 498 21
41 498 23
42 498 16
43 498 22
44 498 18
45 498 18
46 498 17
47 498 20
48 498 24
49 498 27
50 498 22
51 498 21
52 498 24
53 498 26
54 498 20
55 498 24
56 498 25
57 498 11
58 498 18
59 498 18
60 498 21
61 498 20
62 498 16
63 498 24
64 498 25
65 498 18
66 498 22
67 498 19
68 498 19
69 498 19
70 498 12
71 498 28
72 498 24
73 498 16
74 498 30
75 498 13
76 498 23
77 498 16
78 498 27
79 498 21
80 498 16
85 498 1
86 498 2
88 498 1
90 498 2
92 498 1
93 498 2
95 498 2
96 498 2
97 498 1
98 498 1
99 498 1
100 498 1
101 498 1
102 498 2
103 498 2
105 498 1
106 498 3
107 498 1
108 498 2
109 498 1
110 498 2
113 498 1
114 498 1
116 498 1
117 498 1
118 498 1
119 498 1
120 498 2
1 499 16
2 499 20
3 499 20
4 499 16
5 499 22
6 499 12
7 499 20
8 499 21
9 499 21
10 499 13
11 499 23
12 499 19
13 499 21
14 499 28
15 499 17
16 499 2
17 499 1
18 499 1
19 499 1
20 499 1
21 499 15
22 499 28
23 499 22
24 499 24
25 499 23
26 499 26
27 499 15
28 499 15
29 499 16
30 499 23
31 499 29
32 499 15
33 499 24
34 499 25
35 499 24
36 499 26
37 499 25
38 499 27
39 499 16
40 499 28
41 499 28
42 499 29
43 499 32
44 499 27
45 499 26
46 499 23
47 499 22
48 499 29
49 499 22
50 499 20
51 499 27
52 499 24
53 499 32
54 499 17
55 499 17
56 499 29
57 499 26
58 499 12
59 499 13
60 499 19
61 499 24
62 499 30
63 499 15
64 499 28
65 499 20
66 499 27
67 499 9
68 499 18
69 499 21
70 499 19
71 499 24
72 499 28
73 499 18
74 499 24
75 499 23
76 499 32
77 499 26
78 499 21
79 499 20
80 499 28
83 499 2
84 499 1
86 499 1
87 499 1
88 499 1
89 499 2
91 499 1
92 499 2
93 499 1
95 499 1
96 499 1
98 499 3
99 499 2
104 499 1
105 499 1
106 499 1
109 499 2
110 499 1
111 499 1
113 499 1
114 499 1
115 499 1
116 499 2
117 499 2
118 499 1
119 499 2
120 499 1
1 500 17
2 500 19
3 500 20
4 500 15
5 500 13
6 500 18
7 500 7
8 500 19
9 500 17
10 500 10
11 500 11
12 500 10
13 500 21
14 500 15
15 500 18
17 500 1
20 500 1
21 500 17
22 500 22
23 500 24
24 500 14
25 500 20
26 500 20
27 500 15
28 500 19
29 500 13
30 500 25
31 500 16
32 500 23
33 500 12
34 500 20
35 500 16
36 500 18
37 500 16
38 500 11
39 500 12
40 500 21
41 500 16
42 500 21
43 500 14
44 500 17
45 500 22
46 500 18
47 500 22
48 500 20
49 500 18
50 500 18
51 500 11
52 500 15
53 500 18
54 500 15
55 500 16
56 500 18
57 500 15
58 500 18
59 500 8
60 500 20
61 500 12
62 500 16
63 500 21
64 500 14
65 500 17
66 500 23
67 500 16
68 500 19
69 500 21
70 500 27
71 500 10
72 500 20
73 500 16
74 500 21
75 500 20
76 500 19
77 500 11
78 500 22
79 500 18
80 500 18
81 500 1
82 500 1
83 500 1
84 500 2
87 500 1
88 500 1
89 500 1
90 500 2
91 500 1
93 500 3
94 500 1
95 500 1
99 500 2
101 500 1
110 500 3
111 500 1
112 500 1
114 500 1
115 500 1
117 500 1
118 500 1
120 500 1
